15
7414
S      3.028590    1.183668   -0.193367
O      2.503240   -1.317951   -1.006380
C      0.565938   -0.153594   -0.248477
C      0.002769    0.998798    0.266111
C     -0.229382   -1.250781   -0.506821
C     -1.344355    1.120034    0.544246
C     -1.586900   -1.161023   -0.238257
C     -2.134436    0.000255    0.276822
C      2.004486   -0.256385   -0.535848
H      3.631784    1.045603    1.069550
H      0.634820    1.877107    0.473715
H      0.157820   -2.168157   -0.905822
H     -1.770602    2.027942    0.946624
H     -2.273442   -1.988482   -0.418000
H     -3.190331    0.042967    0.475904
