8
Lattice="5.4306975 0.0 0.0 0.0 5.4306975 0.0 0.0 0.0 5.4306975" Properties=species:S:1:pos:R:3 pbc="T T T"
Si       0.00000000       0.00000000       0.00000000
Si       1.35767437       1.35767437       1.35767437
Si       2.71534875       2.71534875       0.00000000
Si       4.07302312       4.07302312       1.35767437
Si       2.71534875       0.00000000       2.71534875
Si       4.07302312       1.35767437       4.07302312
Si       0.00000000       2.71534875       2.71534875
Si       1.35767437       4.07302312       4.07302312
3
Properties=species:S:1:pos:R:3 pbc="F F F"
O        0.00000000       0.00000000       0.11926200
H        0.00000000       0.76323900      -0.47704700
H        0.00000000      -0.76323900      -0.47704700
