1
Lattice="5.0 0.0 0.0 0.0 5.0 0.0 0.0 0.0 5.0" Properties=species:S:1:pos:R:3:forces:R:3 config_type=IsolatedAtom oddNumberofElectrons=F E=-1.73764844038335 pbc="F F F"
C        0.00000000       0.00000000       0.00000000       0.00000000      -0.00000000       0.00000000
1
Lattice="5.0 0.0 0.0 0.0 5.0 0.0 0.0 0.0 5.0" Properties=species:S:1:pos:R:3:forces:R:3 config_type=IsolatedAtom oddNumberofElectrons=T E=-4.16412857046055 pbc="F F F"
Cl       0.00000000       0.00000000       0.00000000       0.00000000       0.00000000       0.00000000
1
Lattice="5.0 0.0 0.0 0.0 5.0 0.0 0.0 0.0 5.0" Properties=species:S:1:pos:R:3:forces:R:3 config_type=IsolatedAtom oddNumberofElectrons=T E=-3.8149638372013 pbc="F F F"
Br       0.00000000       0.00000000       0.00000000       0.00000000       0.00000000       0.00000000
1
Lattice="5.0 0.0 0.0 0.0 5.0 0.0 0.0 0.0 5.0" Properties=species:S:1:pos:R:3:forces:R:3 config_type=IsolatedAtom oddNumberofElectrons=T E=-0.40208817687373 pbc="F F F"
H        0.00000000       0.00000000       0.00000000       0.00000000      -0.00000000       0.00000000
6
Lattice="1.4038164999999996 0.0 0.0 0.0 3.5523895000000003 0.0 0.0 0.0 0.827983500000002" Properties=species:S:1:pos:R:3:forces:R:3 CH3Cl_centered=T charge=-1 oddNumberofElectrons=F E=-365.89800939951016 pbc="F F F"
C       -0.68376800       0.72004850      -0.59043250  -13376.34270000  140823.18100000     420.74196100
Cl      -1.74274200       1.80964750      -1.54943650   19253.26360000 -200183.77500000   -1476.96664000
H       -1.10606200      -0.27807850      -0.70664750    2473.81270000  -70130.25540000     -30.22268290
H       -0.80348800       0.99290250       0.45805150   -7288.98668000  -30155.00800000    -911.48422600
H        0.36019100       0.66601550      -0.89920550    7980.00950000   16504.30180000     753.00228900
Br       1.74274200      -1.80964750       1.54943650   -9041.75647000  143141.55500000    1244.92929000
6
Lattice="1.7917234999999998 0.0 0.0 0.0 4.0202304999999985 0.0 0.0 0.0 1.1943389999999994" Properties=species:S:1:pos:R:3:forces:R:3 CH3Cl_centered=T charge=-1 oddNumberofElectrons=F E=437.28385460771653 pbc="F F F"
C       -0.86469900       0.92702450      -0.61636150     213.27204500    -208.24982300      90.62648950
Cl      -1.96307200       2.05715850      -1.61104150  -20401.25750000    5661.93591000   17268.56220000
H       -0.78982900       0.00364150      -1.19069750      -7.20867736    -155.32634500       3.03481587
H       -1.26279500       0.69591050       0.37166950    -142.01001700    -176.67558800     -85.08328020
H        0.10351700       1.37512650      -0.39307350       2.38398479    -777.39057900     207.14886400
Br       1.96307200      -2.05715850       1.61104150   20334.82020000   -4344.29358000  -17484.28910000
6
Lattice="1.8211964999999992 0.0 0.0 0.0 3.8989314999999998 0.0 0.0 0.0 1.0737854999999996" Properties=species:S:1:pos:R:3:forces:R:3 CH3Cl_centered=T charge=-1 oddNumberofElectrons=F E=673.5845449609865 pbc="F F F"
C       -0.92205200       0.89914450      -0.81708450     584.19187200    7308.31901000     166.36499700
Cl      -1.94611200       1.95281950      -1.74447050  -41316.00810000   -1426.05679000  -44600.30940000
H       -1.22070400      -0.14691850      -0.88533650    -157.78007000     148.00591800      -1.68366260
H       -0.89467400       1.23010450       0.22109450     392.78059000     169.76159100    -136.86831800
H        0.08177100       0.97317450      -1.23536650    2029.26431000  -10331.00110000     -42.08517660
Br       1.94611200      -1.95281950       1.74447050   38467.55140000    4130.97141000   44614.58160000
6
Lattice="1.4939889999999991 0.0 0.0 0.0 3.645559999999998 0.0 0.0 0.0 1.8370074999999986" Properties=species:S:1:pos:R:3:forces:R:3 CH3Br_centered=T charge=-1 oddNumberofElectrons=F E=108.7371326546901 pbc="F F F"
C       -0.64625600       0.84773300       0.77963350     102.74923100     549.74256100     169.29532400
Br      -1.56277500       2.08278500       1.96532450   -3822.56827000   13670.69300000    7950.35322000
H       -0.70592200      -0.18232800       1.13108550      -0.69019151    -877.12717300      32.29138280
H       -1.10079600       0.87938100      -0.21055850      17.04754830     469.82616600      62.90770590
H        0.37369300       1.19302600       0.61059350     -77.43915390     303.49955200      -7.57831105
Cl       1.56277500      -2.08278500      -1.96532450    3780.90084000  -14116.63410000   -8207.26932000
6
Lattice="1.8358750000000015 0.0 0.0 0.0 4.030324 0.0 0.0 0.0 1.6957609999999992" Properties=species:S:1:pos:R:3:forces:R:3 CH3Cl_centered=T charge=-1 oddNumberofElectrons=F E=438.4287921927247 pbc="F F F"
C       -0.94457450       0.89130050      -0.75116850     -85.71143910    -740.66471400     -40.80752260
Cl      -2.02616050       2.00416350      -1.73064750  -55567.79930000   -3184.67782000   -9857.22978000
H       -0.45685450       0.22917850      -1.46658250       3.56332755      62.98217660       1.23303573
H       -1.49749550       0.31385150      -0.01027350      11.06164880      38.51592510       4.33667770
H       -0.13448550       1.44183650      -0.27287050    -151.61056200    -508.81044700    -228.34182500
Br       2.02616050      -2.00416350       1.73064750   55790.49630000    4332.65488000   10120.80940000
6
Lattice="1.205429500000001 0.0 0.0 0.0 3.3127975000000003 0.0 0.0 0.0 1.6889425000000031" Properties=species:S:1:pos:R:3:forces:R:3 CH3Br_centered=T charge=-1 oddNumberofElectrons=F E=682.6585189783495 pbc="F F F"
C       -0.51947200       0.68595750       0.68476150    2360.03734000   19699.79760000     488.15401500
Br      -1.41716000       1.89563750       1.84609350     290.12300500 -355564.91600000    3387.90749000
H       -0.98031600      -0.30154150       0.70862650     -83.25608300   65357.72810000    6051.02740000
H       -0.60278700       1.12475850      -0.30952950   -3177.21405000  192301.60800000    5867.48216000
H        0.53115300       0.70018950       0.97473850    -322.58838600   16097.35420000    2396.29650000
Cl       1.41716000      -1.89563750      -1.84609350     932.89817300   62108.42800000  -18190.86760000
6
Lattice="1.3808609999999994 0.0 0.0 0.0 3.546671 0.0 0.0 0.0 1.6951374999999977" Properties=species:S:1:pos:R:3:forces:R:3 CH3Cl_centered=T charge=-1 oddNumberofElectrons=F E=-679.6921789023281 pbc="F F F"
C       -0.74914450       0.63171650      -0.47465700     586.01533000    5390.62488000    3784.84048000
Cl      -1.81661550       1.73005550      -1.44135100   38957.07080000 -171875.99400000   65003.24420000
H       -1.27546050       0.29816450       0.41967700    -231.56669500   47204.03810000   -8442.04503000
H        0.20919350       1.04329950      -0.15797300    -594.30286100 -155673.90100000    8016.55687000
H       -0.61200250      -0.23393850      -1.12267300    -297.43672000  153657.34100000   15389.55230000
Br       1.81661550      -1.73005550       1.44135100  -38419.77980000  121297.89100000  -83752.14880000
6
Lattice="0.8418915000000009 0.0 0.0 0.0 3.037767500000001 0.0 0.0 0.0 1.4299275000000016" Properties=species:S:1:pos:R:3:forces:R:3 CH3Br_centered=T charge=-1 oddNumberofElectrons=F E=-5935.596274814616 pbc="F F F"
C       -0.38102050       0.44320800       0.46087100   48022.03800000 -868757.94200000   71355.11150000
Br      -1.32393550       1.71383200       1.68071200  -12930.89530000 4177069.26000000  346808.51100000
H       -0.65680150       0.77312600      -0.54073200   -6856.79768000  179392.91000000   25881.19640000
H        0.70042150       0.57700400       0.48712700  -45528.35610000  400381.87900000  -11427.10970000
H       -0.54411050      -0.61642900       0.65749100   -1309.38611000 2015951.00000000 -132531.49600000
Cl       1.32393550      -1.71383200      -1.68071200   18603.39710000 -5904037.11000000 -300086.21400000
6
Lattice="1.3865525000000005 0.0 0.0 0.0 3.5666245000000014 0.0 0.0 0.0 1.1439045000000014" Properties=species:S:1:pos:R:3:forces:R:3 CH3Br_centered=T charge=-1 oddNumberofElectrons=F E=302.00473310878004 pbc="F F F"
C       -0.58768150       0.79887100       0.75672600    1059.79394000   -7178.50940000    -240.08900900
Br      -1.51633950       2.05028500       1.95812700   -1976.89302000    6667.25406000    1751.53883000
H        0.25998550       1.40389000       0.43499700    4587.05652000   -8527.52738000    4161.03605000
H       -0.22512750      -0.09547000       1.26350100     -46.34055640    -526.08011600      10.86909790
H       -1.30794050       0.48604400       0.00077400     193.48527800   -1037.08038000      -0.64970721
Cl       1.51633950      -2.05028500      -1.95812700   -3817.10216000   10601.94320000   -5682.70526000
6
Lattice="1.293685 0.0 0.0 0.0 3.4785509999999995 0.0 0.0 0.0 0.5362279999999995" Properties=species:S:1:pos:R:3:forces:R:3 CH3Br_centered=T charge=-1 oddNumberofElectrons=F E=-9024.900153321194 pbc="F F F"
C       -0.57536800       0.71831700       0.62122850 -525275.46100000 -187977.19400000   -2951.83253000
Br      -1.50607000       1.97248100       1.82526950  -30938.81130000 24356591.90000000   -4259.75816000
H        0.47462500       1.01085300       0.61523750 -1026660.25000000 -25567542.40000000   -1588.93485000
H       -0.78825300      -0.24880800       1.07670250   91874.66070000 -1739901.99000000     -11.30271730
H       -0.87994300       0.67668300      -0.42453150  907124.98600000 4495844.36000000    5840.48338000
Cl       1.50607000      -1.97248100      -1.82526950  583874.87100000 -1357014.68000000    2971.34487000
6
Lattice="1.0989985000000004 0.0 0.0 0.0 3.208785500000001 0.0 0.0 0.0 1.2700840000000007" Properties=species:S:1:pos:R:3:forces:R:3 CH3Br_centered=T charge=-1 oddNumberofElectrons=F E=-2106.6553739210867 pbc="F F F"
C       -0.50710850       0.55222900       0.59189000   15760.18670000 -1609207.43000000 -146664.05800000
Br      -1.42272150       1.78606400       1.77641400 -104030.26500000 11682470.70000000  -37969.49410000
H        0.02222350       1.04868900      -0.22139500   53906.18030000 -1378111.90000000   -3327.23611000
H        0.19023550      -0.09134600       1.12820000    1940.30108000 -8366864.09000000    3591.41542000
H       -1.30412850      -0.04301000       0.14630600     264.43459000 2308066.58000000    3788.63672000
Cl       1.42272150      -1.78606400      -1.77641400   32159.16240000 -2636353.85000000  180580.73600000
6
Lattice="1.0719865000000013 0.0 0.0 0.0 3.2467225000000006 0.0 0.0 0.0 1.5322695000000017" Properties=species:S:1:pos:R:3:forces:R:3 CH3Br_centered=T charge=-1 oddNumberofElectrons=F E=129.1499613065984 pbc="F F F"
C       -0.43934900       0.52294400       0.63263750     -53.00494410   94373.24210000     504.19375600
Br      -1.38748700       1.80060800       1.85923550     851.01281600 -104558.96100000    2655.71272000
H       -0.35360800      -0.47891900       1.05335050      31.85044300   20232.46640000     556.43089800
H       -0.92756400       0.41807800      -0.33624850     -40.26738010   13711.40800000    1319.33039000
H        0.55620000       0.86200700       0.34625050      19.18553590    3292.93002000     677.74419000
Cl       1.38748700      -1.80060800      -1.85923550    -808.77647100  -27051.08580000   -5713.41196000
6
Lattice="1.568235500000002 0.0 0.0 0.0 3.705931500000002 0.0 0.0 0.0 1.250601500000002" Properties=species:S:1:pos:R:3:forces:R:3 CH3Cl_centered=T charge=-1 oddNumberofElectrons=F E=-2387.553045359798 pbc="F F F"
C       -0.78265650       0.78557900      -0.67477200   26137.57760000  -31369.06990000    2733.21877000
Cl      -1.83627050       1.86966100      -1.62891800 -446961.53500000 -1801266.06000000 -138851.64400000
H       -1.28788150      -0.03728000      -0.16905400  -16307.04690000  -97760.93020000    1219.80574000
H       -0.40385150       1.40067900       0.14147400  -11136.59030000  639158.92400000   14080.97230000
H       -0.08392650       0.36950200      -1.40055200  -20275.71890000  392232.30100000   -2070.23524000
Br       1.83627050      -1.86966100       1.62891800  468543.31400000  899004.83600000  122887.88200000
6
Lattice="1.5024334999999986 0.0 0.0 0.0 3.6415014999999986 0.0 0.0 0.0 1.832136499999999" Properties=species:S:1:pos:R:3:forces:R:3 CH3Cl_centered=T charge=-1 oddNumberofElectrons=F E=167.19246730480648 pbc="F F F"
C       -0.66767350       0.80815800      -0.69427550     153.45161100    1822.99076000     397.22421100
Cl      -1.73507650       1.90642500      -1.66090950  -11343.58680000    7595.34337000   11044.00000000
H        0.37140850       0.80861200      -1.02352450    -207.67241500    1196.04000000    -295.19849700
H       -1.12162950      -0.17678900      -0.58518350       0.32686788    -563.79588300      37.77606470
H       -0.54393550       1.13857000       0.33704050     -69.06985270      31.07027720    -222.48255200
Br       1.73507650      -1.90642500       1.66090950   11466.55060000  -10081.64850000  -10961.31920000
6
Lattice="1.4483665000000006 0.0 0.0 0.0 3.5180225000000007 0.0 0.0 0.0 1.9480414999999986" Properties=species:S:1:pos:R:3:forces:R:3 CH3Cl_centered=T charge=-1 oddNumberofElectrons=F E=-227.29039324444784 pbc="F F F"
C       -0.70976300       0.73860350      -0.68450600      62.16805360    1363.94129000    -458.66542900
Cl      -1.72984300       1.78817950      -1.60828400   -1187.66322000   -4070.94626000    5412.10912000
H        0.19430800       0.65976050      -1.28828100     138.40699000    3083.91787000      33.96041650
H       -1.01038900      -0.29777150      -0.53072000      23.12481330   -1225.27029000     111.23114000
H       -0.32998900       1.20270750       0.22570200      30.06412280    2896.75369000     241.88078200
Br       1.72984300      -1.78817950       1.60828400     933.89923900   -2048.39630000   -5340.51603000
6
Lattice="1.7894335000000012 0.0 0.0 0.0 3.9763135000000016 0.0 0.0 0.0 2.488122500000001" Properties=species:S:1:pos:R:3:forces:R:3 CH3Br_centered=T charge=-1 oddNumberofElectrons=F E=5.07614258631543 pbc="F F F"
C       -0.70472350       1.08471000       0.95899000    -101.64183200    -128.90702500     131.27190500
Br      -1.63628150       2.34003200       2.16413800     517.94885200    1338.55474000   -1203.28591000
H       -1.06181550       1.42630700      -0.01255400      13.98374660     -34.79060870      -9.95797067
H        0.34779750       1.36668100       0.98705200      13.77539030      -8.83507387      45.27304160
H       -0.91120950       0.03627100       1.17402600       1.97609800      -8.09341139       6.19454965
Cl       1.63628150      -2.34003200      -2.16413800    -446.04225500   -1157.92862000    1030.50439000
6
Lattice="1.130923000000001 0.0 0.0 0.0 3.2940450000000006 0.0 0.0 0.0 1.5180364999999991" Properties=species:S:1:pos:R:3:forces:R:3 CH3Br_centered=T charge=-1 oddNumberofElectrons=F E=743.0461934629772 pbc="F F F"
C       -0.43682100       0.69410200       0.57902050    1414.13774000   85173.51150000  -10199.85610000
Br      -1.35825900       1.93578600       1.77108050    5465.74439000 -464123.07500000   59750.25820000
H       -0.13508800       1.15797500      -0.36006150   12511.44200000  158252.62200000   23822.44720000
H        0.52190600       0.47141900       1.04737550   -3169.57689000   28610.23700000   15848.65480000
H       -0.99064600      -0.22722000       0.39862850    1541.88100000 -123003.06000000  -18684.40270000
Cl       1.35825900      -1.93578600      -1.77108050  -17763.62830000  315089.76400000  -70537.10150000
6
Lattice="4.224176499999999 0.0 0.0 0.0 6.359101499999998 0.0 0.0 0.0 3.9977535" Properties=species:S:1:pos:R:3:forces:R:3 CH3Cl_centered=T charge=-1 oddNumberofElectrons=F E=-4.98704314709519 pbc="F F F"
C       -2.07015900       2.15401750      -1.87282300     -14.66817280     -24.26173800      -7.57482129
Cl      -3.12240800       3.23669350      -2.82573100      -8.29788940       7.95614651      -9.31430302
H       -1.21820700       2.62002150      -1.37773200    -239.82167200   -1060.46415000    -432.10246100
H       -1.64408900       1.39813650      -2.53252600       0.42272340      -1.15940708      -0.39120700
H       -2.76151300       1.66570350      -1.18602200      -0.82884686      -1.15744590       0.08684913
Br       3.12240800      -3.23669350       2.82573100     263.19385800    1079.08659000     449.29594300
6
Lattice="1.1419024999999987 0.0 0.0 0.0 3.2514935000000005 0.0 0.0 0.0 1.5980064999999986" Properties=species:S:1:pos:R:3:forces:R:3 CH3Br_centered=T charge=-1 oddNumberofElectrons=F E=263.0929619454968 pbc="F F F"
C       -0.41792750       0.67505200       0.72397500     147.55186200    5215.58924000    -179.47295500
Br      -1.33740150       1.91409200       1.91349400    -539.92792800   -3513.08411000    1139.10194000
H       -1.10164450       0.49636200      -0.10591100     108.22865900   -1411.14418000      71.81997460
H        0.50159250       1.11705700       0.34030800     109.67272100    1191.07877000    -358.10360200
H       -0.06829050      -0.24055400       1.20095700     -13.58168930    5714.21397000     -11.70053350
Cl       1.33740150      -1.91409200      -1.91349400     188.05637500   -7196.65370000    -661.64482400
6
Lattice="1.993720999999999 0.0 0.0 0.0 4.039859 0.0 0.0 0.0 2.1588299999999983" Properties=species:S:1:pos:R:3:forces:R:3 CH3Cl_centered=T charge=-1 oddNumberofElectrons=F E=294.27191332509443 pbc="F F F"
C       -0.84104800       1.04351000      -0.95021100     848.48048300     260.90746500    3226.11025000
Cl      -1.89875000       2.13179800      -1.90806100    6773.52675000    6120.69460000   11586.45000000
H       -0.91599400       1.24283600       0.11878300    2397.33088000     655.75046200     445.19233700
H        0.20289100       1.32199100      -1.09424100   -1469.21987000     967.31174900    1582.78457000
H       -0.81401500      -0.02070400      -1.18435400     -67.35085950   -2526.90607000     637.07000600
Br       1.89875000      -2.13179800       1.90806100   -8482.76738000   -5477.75821000  -17477.60720000
6
Lattice="1.1506095000000016 0.0 0.0 0.0 3.280358500000002 0.0 0.0 0.0 0.9162859999999995" Properties=species:S:1:pos:R:3:forces:R:3 CH3Br_centered=T charge=-1 oddNumberofElectrons=F E=-16204.496135161868 pbc="F F F"
C       -0.54821350       0.59142700       0.60239600  138740.11100000  739231.16100000    5797.51692000
Br      -1.46010950       1.82024900       1.78210300 -784982.84100000 -1993000.67000000 -196840.98800000
H        0.33210150       0.17966300       1.09594900   10047.27730000 -345368.84700000   -1709.43695000
H       -1.04064450      -0.26568400       0.14307400  -89776.75670000 -709423.65900000  -17310.69330000
H       -0.20214950       1.23538300      -0.20608900   54872.98050000 -3697694.21000000   87807.32720000
Cl       1.46010950      -1.82024900      -1.78210300  671099.22800000 6006256.22000000  122256.27400000
6
Lattice="1.1269279999999995 0.0 0.0 0.0 3.2787919999999993 0.0 0.0 0.0 1.6007039999999986" Properties=species:S:1:pos:R:3:forces:R:3 CH3Br_centered=T charge=-1 oddNumberofElectrons=F E=-133.8360323665177 pbc="F F F"
C       -0.51872100       0.57614200       0.60820700    -294.96472900    2458.94690000    1901.93503000
Br      -1.44902300       1.82976900       1.81173100    1641.20598000  -49299.54310000    9513.67196000
H       -1.18434000      -0.26542900       0.41636400      37.15410890   -9994.79726000    -227.97780700
H       -0.11174700       1.10036700      -0.25647500    -135.92210600   18279.07480000    -544.33172200
H        0.34961100       0.18951400       1.14170400      98.56068960    5025.44651000    -169.44124500
Cl       1.44902300      -1.82976900      -1.81173100   -1346.03394000   33530.87220000  -10473.85620000
6
Lattice="1.774946 0.0 0.0 0.0 3.801342 0.0 0.0 0.0 1.7020915000000016" Properties=species:S:1:pos:R:3:forces:R:3 CH3Cl_centered=T charge=-1 oddNumberofElectrons=F E=-497.9435268187775 pbc="F F F"
C       -0.73696650       0.89141700      -0.88352900    7854.29669000   -8888.29434000    6885.70250000
Cl      -1.78446450       1.96920500      -1.83213700  116361.58900000 -139043.32800000  -86365.88870000
H       -1.30961850       0.39247300      -0.10171900   -4234.29853000   41497.76060000   -1064.04980000
H        0.10708050       1.42945000      -0.45202000  -38504.51970000  113587.70200000   17434.98290000
H       -0.33774150       0.17988400      -1.60633100   -1646.83399000   15986.43140000    2086.12580000
Br       1.78446450      -1.96920500       1.83213700  -79830.23370000  -23140.27160000   61023.12730000
6
Lattice="1.4667165000000004 0.0 0.0 0.0 3.6788685 0.0 0.0 0.0 2.1219055000000004" Properties=species:S:1:pos:R:3:forces:R:3 CH3Br_centered=T charge=-1 oddNumberofElectrons=F E=40.39647566670685 pbc="F F F"
C       -0.68826850       0.77844800       0.75607200     192.19380700    1027.23609000      70.39654690
Br      -1.63059250       2.04827600       1.97514800   -8280.60003000    9562.23963000   -9670.83052000
H       -1.11782250      -0.19214900       1.00408300       2.21549481    -688.56429500     -63.80931890
H       -0.85256550       1.06305800      -0.28321900     157.08133800     832.34314800     121.42920900
H        0.31789750       0.73118300       1.17262700    -102.18895900     453.32308200     183.30536600
Cl       1.63059250      -2.04827600      -1.97514800    8031.29835000  -11186.57770000    9359.50871000
6
Lattice="1.1836550000000017 0.0 0.0 0.0 3.2784595000000003 0.0 0.0 0.0 1.6657110000000017" Properties=species:S:1:pos:R:3:forces:R:3 CH3Br_centered=T charge=-1 oddNumberofElectrons=F E=662.3266508039013 pbc="F F F"
C       -0.46860450       0.67374800       0.71505050      -3.29908522   -6432.60406000    1584.30605000
Br      -1.37853550       1.89992400       1.89222050   -2309.98942000  -13527.71910000    5685.50342000
H       -1.22360350      -0.06353000       0.44210750     -24.49050610   -7086.37620000     323.56394400
H       -0.18929250       1.27540500      -0.14987450   -1210.96764000  -28714.25160000    1783.33629000
H        0.48546350       0.36478200       1.14212650     -23.55356270    -439.49505700      31.44387300
Cl       1.37853550      -1.89992400      -1.89222050    3572.30021000   56200.44610000   -9408.15358000
6
Lattice="1.4934720000000006 0.0 0.0 0.0 3.743252 0.0 0.0 0.0 1.550321000000002" Properties=species:S:1:pos:R:3:forces:R:3 CH3Br_centered=T charge=-1 oddNumberofElectrons=F E=38.4751802944879 pbc="F F F"
C       -0.67381300       0.81965900       0.71096500     654.56528200    8692.01886000    1013.42520000
Br      -1.63216500       2.11108700       1.95077500    -608.57685800  -13839.32110000    -961.56413400
H       -0.43037100      -0.16093600       1.11995000     156.46848100    9820.31275000     102.91347600
H       -1.17078100       0.77237200      -0.25799700      -7.77430864    6914.40167000    -134.06323000
H        0.35989500       1.15888100       0.64394300     456.23990100   -4589.09242000    -564.91167000
Cl       1.63216500      -2.11108700      -1.95077500    -650.92249700   -6998.31979000     544.20035700
6
Lattice="1.9279909999999987 0.0 0.0 0.0 4.102781 0.0 0.0 0.0 2.0544649999999987" Properties=species:S:1:pos:R:3:forces:R:3 CH3Br_centered=T charge=-1 oddNumberofElectrons=F E=27.67358769140201 pbc="F F F"
C       -0.79249300       1.13549800       0.92332150    -304.65664000     253.55856100      -1.27155230
Br      -1.71890200       2.38387900       2.12180750    3334.71577000    4629.70710000    1284.06177000
H       -1.55930600       0.49515900       0.48735650      -6.58975984      68.42738820     -20.50399690
H       -0.43116300       1.63116600       0.02228750   -3669.97408000   -1227.89007000    1527.75561000
H        0.00780200       0.60010100       1.43418550       3.20286097     111.99910900      35.43421370
Cl       1.71890200      -2.38387900      -2.12180750     643.30185100   -3835.80209000   -2825.47604000
6
Lattice="1.7708889999999986 0.0 0.0 0.0 3.878696999999999 0.0 0.0 0.0 1.7382810000000006" Properties=species:S:1:pos:R:3:forces:R:3 CH3Cl_centered=T charge=-1 oddNumberofElectrons=F E=856.9236383064529 pbc="F F F"
C       -0.75768000       0.95483600      -0.81605300      38.51962430     -62.96992670      -8.52077386
Cl      -1.82533400       2.05336300      -1.78291200  -51575.64270000  114514.61200000  -42180.54670000
H       -1.46403600       0.27424500      -0.34070300      39.37350950     466.14251100      16.78507520
H       -0.12990900       1.54915800      -0.15214000   -1696.90945000   -2859.32943000   -1835.30687000
H       -0.08201700       0.36891500      -1.43917100     -10.54989120     668.90847100     -13.27999110
Br       1.82533400      -2.05336300       1.78291200   53205.20890000 -112727.36300000   44020.86930000
6
Lattice="0.938876999999998 0.0 0.0 0.0 3.153765999999999 0.0 0.0 0.0 0.6401439999999976" Properties=species:S:1:pos:R:3:forces:R:3 CH3Br_centered=T charge=-1 oddNumberofElectrons=F E=-6401.270464710589 pbc="F F F"
C       -0.44208650       0.49679050       0.44178650  -19419.82380000 23585495.50000000  -60635.82070000
Br      -1.38557550       1.76819050       1.66237150 1292514.12000000 861959283.00000000   40314.35640000
H        0.56081850       0.86381850       0.22367450   48914.78490000 191248538.00000000  -43219.56050000
H       -0.31636550      -0.41693850       1.02263250  -37934.78360000 -272698825.00000000   -2160.13028000
H       -1.06526050       0.18489050      -0.39634950  -99881.56250000 -279314883.00000000    5424.91246000
Cl       1.38557550      -1.76819050      -1.66237150 -1184192.73000000 -524779609.00000000   60276.24270000
6
Lattice="1.0400024999999982 0.0 0.0 0.0 3.2342214999999985 0.0 0.0 0.0 1.0960614999999976" Properties=species:S:1:pos:R:3:forces:R:3 CH3Cl_centered=T charge=-1 oddNumberofElectrons=F E=-9041.746968213025 pbc="F F F"
C       -0.50725000       0.53275250      -0.41275900  -20251.78960000 -2200164.95000000  -56281.03220000
Cl      -1.58872300       1.64549850      -1.39213400  -47379.17360000  158440.52300000  -92726.11240000
H       -0.10557200       0.99048950       0.49125100   77376.05960000 -5557875.82000000   -8889.83291000
H        0.24974400       0.14630450      -1.09519400   16695.98070000  893415.95800000  -10983.96900000
H       -1.10627400      -0.31259350      -0.07413800   -9219.67029000  414482.81600000  132761.39900000
Br       1.58872300      -1.64549850       1.39213400  -17221.40680000 6291701.47000000   36119.54780000
6
Lattice="1.2663989999999998 0.0 0.0 0.0 3.3929839999999984 0.0 0.0 0.0 1.275332999999998" Properties=species:S:1:pos:R:3:forces:R:3 CH3Cl_centered=T charge=-1 oddNumberofElectrons=F E=-2.96437614910906 pbc="F F F"
C       -0.57966000       0.66341300      -0.60298600   -1216.96473000   34912.36740000   -1035.62161000
Cl      -1.63929500       1.75368900      -1.56258400   13115.61310000     164.10692600   -7418.38438000
H       -0.18924900      -0.05171800      -1.32705100    -943.03977500  -15692.76760000    -400.79269500
H       -1.15519200       0.01255600       0.05522900     535.12005200   -6850.48715000     203.58988400
H        0.06536400       1.24436300       0.05620800   -1679.36343000    3363.66549000     548.42048500
Br       1.63929500      -1.75368900       1.56258400   -9811.36519000  -15896.88510000    8102.78832000
6
Lattice="0.924709 0.0 0.0 0.0 3.0974120000000003 0.0 0.0 0.0 0.9655500000000004" Properties=species:S:1:pos:R:3:forces:R:3 CH3Br_centered=T charge=-1 oddNumberofElectrons=F E=1491.584012595675 pbc="F F F"
C       -0.40758400       0.51712500       0.49444500       0.65326476  -77109.61730000      57.35932230
Br      -1.33310400       1.76430800       1.69178200  -11377.51700000 3081963.22000000   -2249.46816000
H        0.42894100       0.02652400       0.99207400    2131.76161000 -1992062.93000000     943.55085200
H       -1.04902600      -0.23867400       0.04121800   -1059.81975000 -2488867.20000000     519.88924200
H        0.09232400       1.02861400      -0.32809300   -1754.18111000 -270188.79700000    3067.88928000
Cl       1.33310400      -1.76430800      -1.69178200   12059.10300000 1746265.33000000   -2339.22053000
6
Lattice="1.2079880000000003 0.0 0.0 0.0 3.3650080000000013 0.0 0.0 0.0 1.0692205000000001" Properties=species:S:1:pos:R:3:forces:R:3 CH3Br_centered=T charge=-1 oddNumberofElectrons=F E=-1723.3118379275165 pbc="F F F"
C       -0.47992250       0.72806550       0.61705200   14398.46520000  108170.30400000   21439.58280000
Br      -1.39876050       1.96624750       1.80574600  -84103.62280000 1095753.23000000   -7397.02931000
H        0.37248150       1.24200050       0.17278000   30882.48950000 -1156816.19000000  -23997.26310000
H       -0.15939850      -0.16879450       1.14715000   11201.87310000  263124.29800000    -599.34776600
H       -1.18076450       0.34279450      -0.12354900   -9181.52497000 -139598.30600000    -239.93494900
Cl       1.39876050      -1.96624750      -1.80574600   36802.32000000 -170633.32900000   10793.99230000
6
Lattice="1.579327000000001 0.0 0.0 0.0 3.7227240000000013 0.0 0.0 0.0 1.295740499999999" Properties=species:S:1:pos:R:3:forces:R:3 CH3Br_centered=T charge=-1 oddNumberofElectrons=F E=296.0472288234823 pbc="F F F"
C       -0.74691750       0.74682400       0.83240950     777.84008600    3449.20444000    -454.44911900
Br      -1.68139150       2.00607200       2.04133250  -24061.37030000   41162.07370000   24822.19560000
H        0.04501350       1.34075400       0.37610650    -367.09663100   -2050.16247000   -2228.45503000
H       -0.42435050      -0.17036000       1.32518150      97.76107880   -7920.95274000     -82.26406200
H       -1.33793950       0.37066700      -0.00262850      44.82348010     690.03398200     -69.39262460
Cl       1.68139150      -2.00607200      -2.04133250   23508.04230000  -35330.19690000  -21987.63470000
6
Lattice="1.947894500000002 0.0 0.0 0.0 4.081113500000001 0.0 0.0 0.0 2.340043500000002" Properties=species:S:1:pos:R:3:forces:R:3 CH3Cl_centered=T charge=-1 oddNumberofElectrons=F E=9.81646065425767 pbc="F F F"
C       -0.97155350       0.95954900      -0.98834550     -34.47284240      70.71081130      63.82453000
Cl      -2.03123650       2.04987700      -1.94798950   -1225.90743000      27.19050790    5633.44239000
H        0.08044650       1.10816200      -1.23188150      -6.02487260      29.43439050       6.66373768
H       -1.07854650       1.01573700       0.09493550       3.09363679      79.38018520       1.56024220
H       -1.24490850      -0.07610100      -1.19036250      -3.25050661      13.99553860     -35.59805830
Br       2.03123650      -2.04987700       1.94798950    1266.56201000    -220.71143300   -5669.89285000
6
Lattice="1.601841499999999 0.0 0.0 0.0 3.744009499999999 0.0 0.0 0.0 1.8007284999999982" Properties=species:S:1:pos:R:3:forces:R:3 CH3Cl_centered=T charge=-1 oddNumberofElectrons=F E=239.68456104562642 pbc="F F F"
C       -0.77978600       0.82205550      -0.67590400     165.49805900    -148.09657900     -11.32034010
Cl      -1.83560500       1.90840450      -1.63204600  -14196.80890000    3011.23586000   11220.57160000
H       -1.16383400       0.63689450       0.32725200     -28.52587130     524.71800800     -66.27772590
H        0.21059700       1.27422450      -0.62314200     -61.65484360     126.88024800    -125.76813100
H       -0.66740900      -0.07909650      -1.27872600      -1.19455138    -257.30846600       0.04759544
Br       1.83560500      -1.90840450       1.63204600   14122.68610000   -3257.42908000  -11017.25300000
6
Lattice="1.2919075000000007 0.0 0.0 0.0 3.4282255 0.0 0.0 0.0 1.7656885000000013" Properties=species:S:1:pos:R:3:forces:R:3 CH3Br_centered=T charge=-1 oddNumberofElectrons=F E=302.0117309707797 pbc="F F F"
C       -0.58812500       0.65054200       0.70378250     362.61569200    4016.02919000    1059.91785000
Br      -1.51951300       1.90563100       1.90871250   -6479.66520000   14916.99170000    2769.90315000
H       -0.62120500      -0.34584200       1.14448350    -143.64278600   -6125.34204000     -60.17650760
H       -0.96670400       0.68729900      -0.31770350      -0.41123770   -4591.79439000    1810.78828000
H        0.42869200       1.01791500       0.56513750    -430.69445400     236.59410900     524.19473600
Cl       1.51951300      -1.90563100      -1.90871250    6691.79799000   -8452.47855000   -6104.62750000
6
Lattice="1.312247499999998 0.0 0.0 0.0 3.4462184999999987 0.0 0.0 0.0 1.0612349999999964" Properties=species:S:1:pos:R:3:forces:R:3 CH3Cl_centered=T charge=-1 oddNumberofElectrons=F E=-410.2734858599232 pbc="F F F"
C       -0.65340700       0.65884050      -0.53708100   16778.28720000 -269855.92000000    1292.38287000
Cl      -1.70518400       1.74103450      -1.48956400  -22759.77990000 1046924.90000000   20368.38510000
H       -1.23761800      -0.18773950      -0.17638300   -4227.85150000 -663315.28200000    -546.47251700
H       -0.14743500       1.11059050       0.31615600   -2045.15338000 -108076.47300000    1486.85983000
H        0.14562100       0.24499750      -1.15221300    -597.86302700   -9525.72265000    -305.41612500
Br       1.70518400      -1.74103450       1.48956400   12852.36060000    3848.49627000  -22295.73910000
6
Lattice="2.133625499999999 0.0 0.0 0.0 4.2381235 0.0 0.0 0.0 1.591108499999999" Properties=species:S:1:pos:R:3:forces:R:3 CH3Cl_centered=T charge=-1 oddNumberofElectrons=F E=-343.70281868114637 pbc="F F F"
C       -1.03202500       1.10160050      -0.96757850    3527.77513000   -9231.04741000   -2480.17905000
Cl      -2.06927600       2.16884750      -1.90690550  -22032.18760000  -62088.50200000  -30372.53580000
H       -1.47708500       0.11402350      -0.84626150     457.87143100   19112.24870000    -306.63983000
H       -0.06893400       1.17001450      -1.47341850   -8467.04069000   44915.45050000   -1803.50223000
H       -0.92612700       1.54852550       0.02092850   28026.19420000   12171.25260000   -1470.57968000
Br       2.06927600      -2.16884750       1.90690550   -1512.61249000   -4879.40236000   36433.43660000
6
Lattice="1.7909909999999982 0.0 0.0 0.0 3.9648619999999983 0.0 0.0 0.0 1.6172269999999997" Properties=species:S:1:pos:R:3:forces:R:3 CH3Cl_centered=T charge=-1 oddNumberofElectrons=F E=-43.34887271225101 pbc="F F F"
C       -0.98931850       0.80167250      -0.82026650       5.90617071    1658.24860000     122.69367700
Cl      -2.06076450       1.90409750      -1.79056050  -11086.85390000   -3722.25365000   -6330.70457000
H       -0.27976250       1.33746450      -0.18973150     305.86460400    1006.21752000     239.82819500
H       -0.35063350       0.22535750      -1.48961550      74.18691560      97.84864200     -12.62603370
H       -1.61559350       0.07897750      -0.29719050     -54.36478210    -298.11349500      33.47746910
Br       2.06076450      -1.90409750       1.79056050   10755.26090000    1258.05238000    5947.33126000
6
Lattice="0.8762124999999994 0.0 0.0 0.0 3.0100154999999997 0.0 0.0 0.0 1.3207635000000018" Properties=species:S:1:pos:R:3:forces:R:3 CH3Br_centered=T charge=-1 oddNumberofElectrons=F E=-426.79253672681807 pbc="F F F"
C       -0.36657750       0.50963500       0.49217350    -691.48086500  763358.53400000   -1657.36223000
Br      -1.27552650       1.73448900       1.66807750    5954.54404000  390128.36700000   46409.82580000
H        0.04949550      -0.40397300       0.91679050      98.64158140  694844.31700000   -8041.79493000
H       -1.05929350       0.33023100      -0.33005250     851.82212800 -427973.13800000   -1881.47474000
H        0.43144550       1.07142800       0.00671950   -6529.15060000 1253331.13000000    5615.54472000
Cl       1.27552650      -1.73448900      -1.66807750     315.62371700 -2673689.21000000  -40444.73860000
6
Lattice="2.170941000000001 0.0 0.0 0.0 4.261274 0.0 0.0 0.0 1.9711394999999978" Properties=species:S:1:pos:R:3:forces:R:3 CH3Cl_centered=T charge=-1 oddNumberofElectrons=F E=757.6177548088067 pbc="F F F"
C       -1.20692750       0.96401350      -0.93471200     734.91780100    5992.66138000    1107.76641000
Cl      -2.23719650       2.02407750      -1.86771600  -46566.41580000  -53590.86850000   69936.57810000
H       -0.86529650       0.26920450      -1.70193500    -208.13575600   -1562.44839000     -40.55263350
H       -0.33968850       1.42363350      -0.46063700     950.27963700     187.69609300   -2074.78600000
H       -1.81954850       0.51315050      -0.15399200    -284.55072600     972.40522200      68.77255830
Br       2.23719650      -2.02407750       1.86771600   45373.90490000   48000.55420000  -68997.77850000
6
Lattice="1.208793 0.0 0.0 0.0 3.3412999999999986 0.0 0.0 0.0 1.098071000000001" Properties=species:S:1:pos:R:3:forces:R:3 CH3Br_centered=T charge=-1 oddNumberofElectrons=F E=-7048.294934555892 pbc="F F F"
C       -0.38874300       0.60476500       0.82005000    4543.65033000 -143777.87600000   -9163.92312000
Br      -1.31847100       1.85761700       2.02282900  -82908.12790000  789895.50700000  196944.52200000
H        0.14773700       1.12391900       0.02584800  -20651.05720000 -351356.96100000  -56684.62210000
H        0.41750400       0.14313300       1.39010000  -26132.78230000  187887.14900000   -2042.76956000
H       -1.09495300      -0.12121600       0.41717000   45277.75200000  668933.00900000    4943.65301000
Cl       1.31847100      -1.85761700      -2.02282900   79870.56510000 -1151580.83000000 -133996.86000000
6
Lattice="0.8820744999999981 0.0 0.0 0.0 3.0812235 0.0 0.0 0.0 1.0587269999999993" Properties=species:S:1:pos:R:3:forces:R:3 CH3Cl_centered=T charge=-1 oddNumberofElectrons=F E=1166.0669859041618 pbc="F F F"
C       -0.36228000       0.51979450      -0.35038700    -111.39407300    1173.86366000     -23.05496420
Cl      -1.44618400       1.63503950      -1.33196300   -8598.37896000  824135.65600000    5842.65006000
H       -0.93180000      -0.27765550       0.12692700      75.62981880   39988.78090000    -691.91789900
H        0.19147900       1.12319850       0.36889300    -520.42203200   96668.93470000    2853.90965000
H        0.42040400       0.08306850      -0.97069600      53.02298820 -334847.14000000    -293.96859100
Br       1.44618400      -1.63503950       1.33196300    9101.54225000 -627120.09600000   -7687.61826000
6
Lattice="1.6258915000000016 0.0 0.0 0.0 3.7807104999999996 0.0 0.0 0.0 2.1011334999999995" Properties=species:S:1:pos:R:3:forces:R:3 CH3Cl_centered=T charge=-1 oddNumberofElectrons=F E=24.28532179913562 pbc="F F F"
C       -0.80808900       0.81780250      -0.70611600     156.09393400    -295.62969200      52.02105320
Cl      -1.87014200       1.91056850      -1.66790400    -774.26443700     162.36381300    1487.63529000
H        0.20226500       1.12503250      -0.97610100     -49.86426160     -87.85955290     -45.23352630
H       -0.95800800      -0.22969350      -0.96758100      -0.21469378      16.99668060      -7.01224879
H       -1.03518900       0.98367450       0.34698100       0.84244717     -91.55883140      77.18804640
Br       1.87014200      -1.91056850       1.66790400     667.40701200     295.68758300   -1564.59862000
6
Lattice="1.8468835000000006 0.0 0.0 0.0 4.0005275000000005 0.0 0.0 0.0 1.8099545" Properties=species:S:1:pos:R:3:forces:R:3 CH3Cl_centered=T charge=-1 oddNumberofElectrons=F E=40.19011510185321 pbc="F F F"
C       -1.02720850       0.81967500      -0.65689150    -196.62166700    -609.01118100     -54.99424690
Cl      -2.08868250       1.91184500      -1.61815350  -10649.48440000   -4091.73928000    8512.06784000
H       -0.03940650       1.26634800      -0.54360650     130.06263000    -289.62197900      94.31696280
H       -1.10433450      -0.14121600      -1.16564850       8.25164848    -515.38915800     -36.09494370
H       -1.45658150       0.80869300       0.34491650    -101.51575200     442.18136600     -67.60352570
Br       2.08868250      -1.91184500       1.61815350   10809.30750000    5063.58023000   -8447.69208000
6
Lattice="1.6614315000000008 0.0 0.0 0.0 3.7751585 0.0 0.0 0.0 1.7983925000000003" Properties=species:S:1:pos:R:3:forces:R:3 CH3Br_centered=T charge=-1 oddNumberofElectrons=F E=-737.9092492464747 pbc="F F F"
C       -0.69204150       0.89467000       0.96939000   11964.50470000   21331.81440000   -1331.31299000
Br      -1.61358050       2.13649200       2.16157800   13211.01830000  -85229.40460000  -26749.28040000
H       -0.25245050       0.08076200       1.54594200   -1242.14091000   -5995.19195000    1153.69427000
H       -1.32574550       0.43307500       0.21212700   -1632.59219000    9769.25188000     891.04903300
H        0.15566050       1.32421900       0.43554500   -2362.44686000    3313.27423000   10487.62980000
Cl       1.61358050      -2.13649200      -2.16157800  -19938.34300000   56810.25610000   15548.22020000
6
Lattice="1.5373835000000007 0.0 0.0 0.0 3.7457755000000024 0.0 0.0 0.0 1.9038575000000009" Properties=species:S:1:pos:R:3:forces:R:3 CH3Cl_centered=T charge=-1 oddNumberofElectrons=F E=-126.4676905464558 pbc="F F F"
C       -0.81176950       0.72561400      -0.65676600     379.50532700   -1174.84253000    3158.47704000
Cl      -1.90022850       1.84554700      -1.64246700   -2018.82381000   37213.14240000   11240.91650000
H       -0.83351850       1.07033900       0.37705500     401.76331000   11700.36740000    -401.10195500
H        0.22457750       0.79253900      -0.98783500       9.53467215   14271.06250000    -302.68739000
H       -1.25865750      -0.26513500      -0.73935800     -85.10419530  -14983.07840000     192.43161400
Br       1.90022850      -1.84554700       1.64246700    1313.12469000  -47026.65130000  -13888.03590000
6
Lattice="2.0773610000000016 0.0 0.0 0.0 4.310613 0.0 0.0 0.0 1.4410129999999999" Properties=species:S:1:pos:R:3:forces:R:3 CH3Cl_centered=T charge=-1 oddNumberofElectrons=F E=533.038836716056 pbc="F F F"
C       -1.09657200       0.98078900      -1.01662400    3816.81526000     657.15792800     542.11459500
Cl      -2.19728400       2.11332900      -2.01342300  -57006.14470000 -144987.71000000   40062.99580000
H       -1.48040300      -0.03939000      -1.01979000    -507.15766600   12394.74810000      21.67931340
H       -1.14833400       1.31107100       0.02084300  -13824.81650000   11125.07730000    -315.00882600
H       -0.09437300       1.14804800      -1.41123700   -6998.21128000   49740.08420000   -1461.43998000
Br       2.19728400      -2.11332900       2.01342300   74519.51490000   71070.64270000  -38850.34090000
6
Lattice="1.103431500000001 0.0 0.0 0.0 3.2621845 0.0 0.0 0.0 1.1700624999999985" Properties=species:S:1:pos:R:3:forces:R:3 CH3Cl_centered=T charge=-1 oddNumberofElectrons=F E=-4512.670880555351 pbc="F F F"
C       -0.54513000       0.55830150      -0.49484350   -9680.28730000  191485.28100000   -7771.00315000
Cl      -1.60912300       1.65306150      -1.45839050  -21573.40700000 -2182758.84000000   25088.41280000
H       -0.20179200       0.96827050       0.45496450   22829.80120000 -261360.55000000  -31002.10450000
H        0.31093100       0.25844650      -1.09928450   14034.28880000 -213017.31200000   -1139.42689000
H       -1.12220200      -0.35576750      -0.35495250   -7242.11323000  358986.28600000  -10525.99970000
Br       1.60912300      -1.65306150       1.45839050    1631.71755000 2106665.14000000   25350.12140000
6
Lattice="0.9446294999999996 0.0 0.0 0.0 3.033227 0.0 0.0 0.0 1.164003000000001" Properties=species:S:1:pos:R:3:forces:R:3 CH3Cl_centered=T charge=-1 oddNumberofElectrons=F E=-217.17071297365226 pbc="F F F"
C       -0.45760000       0.41648900      -0.52814050    -766.06390900 -627516.04100000   32376.93490000
Cl      -1.52178200       1.51144500      -1.49185650  -43724.57500000  344761.10100000 -292826.94000000
H       -0.27544700       0.88855600       0.43730750  -23074.76020000 -213155.98500000  -35768.72720000
H        0.43946800       0.25651800      -1.12628650    1427.75007000   35225.42720000   21866.68470000
H       -0.81662800      -0.60129100      -0.37544350   -1155.26957000 1178047.68000000   25931.59860000
Br       1.52178200      -1.51144500       1.49185650   67292.91860000 -717362.17800000  248420.44900000
6
Lattice="2.3341475000000003 0.0 0.0 0.0 4.527003499999999 0.0 0.0 0.0 2.4180094999999984" Properties=species:S:1:pos:R:3:forces:R:3 CH3Cl_centered=T charge=-1 oddNumberofElectrons=F E=15.93623367317225 pbc="F F F"
C       -1.12599950       1.20814800      -0.98901050     -16.27141680     -31.92680710     -11.59340320
Cl      -2.20680250       2.32020100      -1.96777850     718.21345100     338.17839300    2410.03872000
H       -1.70813950       0.70987000      -0.21380950       0.16962046      -2.31874731      -2.80252464
H       -0.38966350       1.77079100      -0.41512950    -802.56218900   -1332.10451000     101.27023000
H       -0.71062050       0.44293700      -1.64476650       1.65752667      -4.17029071      -0.83856324
Br       2.20680250      -2.32020100       1.96777850      98.79300830    1032.34197000   -2496.07446000
6
Lattice="1.774633999999999 0.0 0.0 0.0 3.9165259999999993 0.0 0.0 0.0 0.8934699999999989" Properties=species:S:1:pos:R:3:forces:R:3 CH3Br_centered=T charge=-1 oddNumberofElectrons=F E=573.7875101007797 pbc="F F F"
C       -0.71408950       1.01519450       1.06054450    7777.52496000   42397.90990000     -79.49350720
Br      -1.64580150       2.27072450       2.26589350   10549.25860000 -177324.13500000     700.92151000
H        0.35000150       1.24347150       0.99976850     804.05913200   53765.79550000     157.18904400
H       -0.88274450       0.01843950       1.46813250    -111.99278500   29916.54420000     -19.92150600
H       -1.17496150       0.89598350       0.07999050   -1742.72427000   40873.13430000    -117.87367900
Cl       1.64580150      -2.27072450      -2.26589350  -17276.12560000   10370.75080000    -640.82186200
6
Lattice="1.4350784999999995 0.0 0.0 0.0 3.566295499999999 0.0 0.0 0.0 1.4275474999999993" Properties=species:S:1:pos:R:3:forces:R:3 CH3Cl_centered=T charge=-1 oddNumberofElectrons=F E=-3551.353988141125 pbc="F F F"
C       -0.60680000       0.80991250      -0.62516600  -20680.59510000   58820.84550000   30418.70150000
Cl      -1.66627300       1.90002250      -1.58461900  523841.39400000 -1261369.28000000  239072.23700000
H        0.15994100       0.25834350      -1.16920400   -4374.08520000  145425.66800000  -20674.06270000
H       -1.27871600       0.13727050      -0.09208600   13602.83940000 -184537.50200000   -6151.79204000
H       -0.07499100       1.44240050       0.08563800 -159830.56300000  767847.92700000 -166202.25300000
Br       1.66627300      -1.90002250       1.58461900 -352558.98900000  473812.34300000  -76462.83090000
6
Lattice="1.148766499999999 0.0 0.0 0.0 3.329857500000001 0.0 0.0 0.0 1.5233934999999992" Properties=species:S:1:pos:R:3:forces:R:3 CH3Br_centered=T charge=-1 oddNumberofElectrons=F E=367.8105732178366 pbc="F F F"
C       -0.51221200       0.63655450       0.52757250     124.52550600   -1692.54880000     221.42557500
Br      -1.44130400       1.88855350       1.72953550     235.71942200   -7020.32205000    4255.72347000
H       -0.55664800       0.96674550      -0.51025450     229.83773200   12016.09890000    -640.67439200
H        0.49124000       0.32651950       0.81922050    -122.84934500   -8245.04222000     249.67301400
H       -1.17935700      -0.22161850       0.44661750     -31.74924370  -10303.56310000     -77.98216040
Cl       1.44130400      -1.88855350      -1.72953550    -435.48407200   15245.37720000   -4008.16550000
6
Lattice="2.018461000000002 0.0 0.0 0.0 4.2094190000000005 0.0 0.0 0.0 1.9493320000000018" Properties=species:S:1:pos:R:3:forces:R:3 CH3Cl_centered=T charge=-1 oddNumberofElectrons=F E=198.44895911884413 pbc="F F F"
C       -1.10408400       0.91437700      -0.87510300    -123.84269000     952.20638400     504.79764500
Cl      -2.18395000       2.02546900      -1.85302200  -25448.54850000  -40105.20800000    9570.82539000
H       -1.79727900       0.15205300      -0.51951200    -522.04775000     853.37714700     378.62564900
H       -0.68864300       1.46212500      -0.02924300    2038.39608000   16403.82850000     715.05869400
H       -0.40246200       0.41795000      -1.54546700     278.90747100     693.23157700     -81.99201530
Br       2.18395000      -2.02546900       1.85302200   23777.13540000   21202.56440000  -11087.31540000
6
Lattice="1.454428 0.0 0.0 0.0 3.621886 0.0 0.0 0.0 1.4774700000000003" Properties=species:S:1:pos:R:3:forces:R:3 CH3Cl_centered=T charge=-1 oddNumberofElectrons=F E=-703.0292987133594 pbc="F F F"
C       -0.77063250       0.68379550      -0.76326700     295.69212100    5693.02855000    -728.65493500
Cl      -1.83891650       1.78296950      -1.73069800  -12551.38170000   57729.96250000  -23295.80360000
H       -1.43621150       0.04125850      -0.18685100    1910.85781000   -3757.32206000    -424.35919800
H       -0.06474350       1.23331550      -0.14049200   -6102.52600000   25290.74300000   -1199.96171000
H       -0.31259450       0.04198350      -1.51584900   -2255.76077000   -4832.49893000    1326.32119000
Br       1.83891650      -1.78296950       1.73069800   18703.11860000  -80123.91310000   24322.45820000
6
Lattice="1.6683080000000015 0.0 0.0 0.0 3.8989850000000015 0.0 0.0 0.0 1.4349390000000017" Properties=species:S:1:pos:R:3:forces:R:3 CH3Cl_centered=T charge=-1 oddNumberofElectrons=F E=-315.02956514070695 pbc="F F F"
C       -0.79423500       0.87407300      -0.64761350   -3372.71642000    7337.46154000   -1912.18232000
Cl      -1.89367700       2.00530800      -1.64326150   52515.44150000 -371003.53800000   21731.88320000
H       -1.33531800       0.09962100      -0.10396050   -3470.70862000   75961.05800000     356.28976500
H       -0.19427200       1.51457200      -0.00115650   10077.15640000  183402.66600000    6982.19048000
H       -0.10681700       0.33275600      -1.29764550    3000.07628000   -6588.19760000      27.67664100
Br       1.89367700      -2.00530800       1.64326150  -58749.24920000  110890.55100000  -27185.85770000
6
Lattice="1.1413444999999989 0.0 0.0 0.0 3.3225225 0.0 0.0 0.0 1.2324429999999982" Properties=species:S:1:pos:R:3:forces:R:3 CH3Cl_centered=T charge=-1 oddNumberofElectrons=F E=-793.3329724017248 pbc="F F F"
C       -0.58965700       0.55168750      -0.54296600    1985.76423000  -46722.89050000    -129.89222600
Cl      -1.66470300       1.65781950      -1.51651700   13005.36610000  473427.63300000  -11227.77140000
H        0.14723200      -0.04082250      -1.08521100    1681.62686000   34686.51900000     693.02872600
H       -1.17082600      -0.15235450       0.05257200   -2419.02010000   28984.64940000     853.60985400
H        0.04336900       1.15588850       0.10690000      55.19195180 -117686.08100000    7664.84398000
Br       1.66470300      -1.65781950       1.51651700  -14308.92900000 -372689.82900000    2146.18103000
6
Lattice="2.751707500000002 0.0 0.0 0.0 4.9386385 0.0 0.0 0.0 3.0420510000000025" Properties=species:S:1:pos:R:3:forces:R:3 CH3Cl_centered=T charge=-1 oddNumberofElectrons=F E=-6.09483233109586 pbc="F F F"
C       -1.34989050       1.40181700      -1.03573100     -27.48693020     -38.08843860      12.59262670
Cl      -2.42777250       2.51086600      -2.01185100     359.26975700      66.81891730    -557.65331600
H       -0.35627750       1.60888200      -1.43316900      -1.92977224    -111.06158900     -48.36132850
H       -1.60893050       0.35120800      -1.16694200       2.55332838      -0.64216178      -0.43546841
H       -1.35549350       1.57346800       0.04065600      -2.81848634      -2.79750488       2.61680854
Br       2.42777250      -2.51086600       2.01185100    -329.58789600      85.77077650     591.24067800
6
Lattice="1.238597500000001 0.0 0.0 0.0 3.3646614999999986 0.0 0.0 0.0 1.6407124999999994" Properties=species:S:1:pos:R:3:forces:R:3 CH3Br_centered=T charge=-1 oddNumberofElectrons=F E=144.09332425539634 pbc="F F F"
C       -0.61212350       0.62647400       0.57917600    1645.46498000    2857.16495000   -1223.51843000
Br      -1.51777450       1.84688700       1.75081000   -3329.02098000    1187.25677000    4684.58501000
H       -0.73526150       0.90545100      -0.46729700     112.71361200     494.07913800     -35.81801260
H        0.46939850       0.69916100       0.69380100   -1563.71452000    -276.36088800     853.33375500
H       -0.97439550      -0.38754000       0.74831800       6.92684351    2854.85234000     -14.16893760
Cl       1.51777450      -1.84688700      -1.75081000    3127.63006000   -7116.99232000   -4264.41338000
6
Lattice="1.045254 0.0 0.0 0.0 3.215382 0.0 0.0 0.0 1.1858900000000006" Properties=species:S:1:pos:R:3:forces:R:3 CH3Br_centered=T charge=-1 oddNumberofElectrons=F E=326.40710700506537 pbc="F F F"
C       -0.36908300       0.67617100       0.64529000    -707.53436800  -13169.36260000     479.17204700
Br      -1.29350600       1.92187600       1.84120900    -852.51843300   28411.48610000    1451.64001000
H       -1.04485600       0.14103400      -0.02184200    -709.41580100    2838.45672000     -15.61143790
H        0.33214600       1.19832700      -0.00566300    1021.95777000  -24765.31920000    -699.03264200
H        0.30836000       0.05258500       1.22864900     707.86296900   -9304.45244000     463.76165400
Cl       1.29350600      -1.92187600      -1.84120900     539.64786400   15989.19150000   -1679.92963000
6
Lattice="1.628697500000003 0.0 0.0 0.0 3.8248655000000014 0.0 0.0 0.0 1.8885655000000021" Properties=species:S:1:pos:R:3:forces:R:3 CH3Cl_centered=T charge=-1 oddNumberofElectrons=F E=74.23453325852259 pbc="F F F"
C       -0.73870150       0.88999600      -0.68749000     138.95321000     493.45150600     -32.07175680
Cl      -1.82113550       2.00373000      -1.66773700   -9399.37853000    5875.90240000   12753.71360000
H       -1.03734350       0.85122200       0.36008200      -1.52819275     502.65251500     -53.79642810
H        0.31979850       1.05905100      -0.88521400    -204.24599200     826.46412000     -50.95869410
H       -0.88696050      -0.12519800      -1.05559500     -40.80660710      70.38645570       2.40757655
Br       1.82113550      -2.00373000       1.66773700    9507.00611000   -7768.85700000  -12619.29430000
6
Lattice="1.3329200000000014 0.0 0.0 0.0 3.4995400000000014 0.0 0.0 0.0 1.727360000000001" Properties=species:S:1:pos:R:3:forces:R:3 CH3Cl_centered=T charge=-1 oddNumberofElectrons=F E=-1083.0825962033414 pbc="F F F"
C       -0.70661750       0.62630250      -0.57630950    -950.96154100   14465.02990000   23444.78880000
Cl      -1.77448850       1.72505150      -1.54336650   49359.00000000  542833.92300000  112178.60800000
H        0.29246950       0.72704950      -1.00031050    1849.52053000    8814.23007000   -2960.44318000
H       -0.90572150      -0.43999850      -0.68334550   -1273.58637000  207971.51900000   20056.30150000
H       -0.78765650       0.86600350       0.48391550    -910.35443100  157208.63500000    -818.88088600
Br       1.77448850      -1.72505150       1.54336650  -48073.61810000 -931293.33800000 -151900.37400000
6
Lattice="1.9516170000000006 0.0 0.0 0.0 4.0097190000000005 0.0 0.0 0.0 1.4766829999999995" Properties=species:S:1:pos:R:3:forces:R:3 CH3Cl_centered=T charge=-1 oddNumberofElectrons=F E=176.53181849834172 pbc="F F F"
C       -0.97831550       0.97330150      -0.81082150    -298.79432300     247.25111900     -63.98799290
Cl      -1.99269950       2.01701950      -1.72944250   -5249.41955000    4189.89300000  -23943.47920000
H       -0.71162050       0.08824050      -1.38844250     -78.63764530    -197.96988000      12.58235590
H       -1.51522550       0.74266650       0.10930650    -278.76344900     982.47523700     -20.60851500
H       -0.06725550       1.49480050      -0.51739050     222.19289100   -1812.83196000    -125.08002500
Br       1.99269950      -2.01701950       1.72944250    5683.42207000   -3408.81751000   24140.57330000
6
Lattice="1.8857815000000002 0.0 0.0 0.0 4.0111405 0.0 0.0 0.0 2.224759500000001" Properties=species:S:1:pos:R:3:forces:R:3 CH3Cl_centered=T charge=-1 oddNumberofElectrons=F E=7.76036563759948 pbc="F F F"
C       -0.88442350       1.00135800      -0.87089250     257.66438200    2543.05811000    2484.91913000
Cl      -1.93195650       2.07918400      -1.81953150    -798.75913000    1410.24453000    2100.35414000
H       -1.21630550       1.00845400       0.16733250      55.64887400    1415.36993000   -1264.46001000
H        0.17050050       1.25609200      -0.97259350     187.93677800     698.33625300      29.71726210
H       -1.01507450      -0.03869100      -1.16975250     -44.38533930   -1628.30814000      27.18346870
Br       1.93195650      -2.07918400       1.81953150     341.89443600   -4438.70069000   -3377.71399000
6
Lattice="1.1619574999999998 0.0 0.0 0.0 3.2734094999999996 0.0 0.0 0.0 1.6307514999999988" Properties=species:S:1:pos:R:3:forces:R:3 CH3Br_centered=T charge=-1 oddNumberofElectrons=F E=-184.67411716736927 pbc="F F F"
C       -0.43810500       0.60270250       0.72385250     -51.19868780    9704.42601000     139.31577500
Br      -1.35865300       1.84318650       1.91475650   -1534.85469000   -6749.79833000    7840.00227000
H       -0.86304000      -0.40010150       0.76771150     -50.07123550  -18104.12770000     -10.69307610
H       -0.42520000       0.94073650      -0.31232850      12.16213720    3157.79172000    -344.43581900
H        0.59604700       0.42016850       1.01593050     202.71544000    7933.26452000     180.39718100
Cl       1.35865300      -1.84318650      -1.91475650    1421.24704000    4058.44375000   -7804.58633000
6
Lattice="1.9824369999999991 0.0 0.0 0.0 4.127571 0.0 0.0 0.0 2.233207" Properties=species:S:1:pos:R:3:forces:R:3 CH3Cl_centered=T charge=-1 oddNumberofElectrons=F E=4.09294954903639 pbc="F F F"
C       -0.93393100       1.04850600      -0.84740600      26.94772570     603.64594800    2402.41488000
Cl      -1.99121200       2.13635900      -1.80487400     -53.63146830     593.19705700     -92.94273710
H        0.05044300       1.50197900      -0.73122800      81.17713640    -445.52840500    -488.66784400
H       -0.82909300       0.09187000      -1.35922000      14.59096360    -662.75337900     -13.09646450
H       -1.34997100       0.85740000       0.14177900    -163.46597700    1355.05852000    -184.89959600
Br       1.99121200      -2.13635900       1.80487400      94.38161910   -1443.61974000   -1622.80824000
6
Lattice="1.3052065000000006 0.0 0.0 0.0 3.480026500000001 0.0 0.0 0.0 0.9658200000000008" Properties=species:S:1:pos:R:3:forces:R:3 CH3Cl_centered=T charge=-1 oddNumberofElectrons=F E=-9012.067993077335 pbc="F F F"
C       -0.68650750       0.61869900      -0.61593700   54649.57990000 -2839055.13000000   35344.01620000
Cl      -1.75841850       1.72160800      -1.58665300 -705277.91800000 5481159.64000000  383807.91700000
H       -0.35411150      -0.23733200      -1.20315200   45293.36270000 1108778.58000000    -842.58361500
H       -1.05697750       0.23984000       0.33659500  -48231.44040000 1673592.89000000   -1289.44883000
H        0.23828250       1.17384700      -0.45885300 -905925.87400000 -13562127.80000000   72515.57550000
Br       1.75841850      -1.72160800       1.58665300 1559492.29000000 8137651.79000000 -489535.47600000
6
Lattice="1.5496220000000012 0.0 0.0 0.0 3.6881485000000005 0.0 0.0 0.0 0.7686500000000009" Properties=species:S:1:pos:R:3:forces:R:3 CH3Br_centered=T charge=-1 oddNumberofElectrons=F E=914.2677156493049 pbc="F F F"
C       -0.67225450       0.84465300       0.87736750    4275.63887000   29928.21750000      24.80228080
Br      -1.59715150       2.09099700       2.07389950     296.35991800  221279.65400000    2535.58492000
H        0.36719750       0.64262300       1.13584750   -1437.81575000   -2858.83641000     -43.84464360
H       -1.12464850      -0.14538500       0.82021450     354.80636200   23618.17050000     -15.16099710
H       -0.58563450       1.14548000      -0.16671050   -1423.16983000  -43210.13080000      23.91909700
Cl       1.59715150      -2.09099700      -2.07389950   -2065.81957000 -228757.07400000   -2525.30066000
6
Lattice="1.2976160000000032 0.0 0.0 0.0 3.4270785000000004 0.0 0.0 0.0 1.6082075000000007" Properties=species:S:1:pos:R:3:forces:R:3 CH3Cl_centered=T charge=-1 oddNumberofElectrons=F E=240.38551144666596 pbc="F F F"
C       -0.56955600       0.65917350      -0.63844250     120.77388700    -363.90059600     846.60128800
Cl      -1.65306400       1.77401450      -1.61965650    7985.04681000   15657.26600000     783.63735600
H       -0.93864500       0.66956250       0.38712150     -53.71968750   -2461.43472000    -378.17247200
H        0.43264000       1.08717350      -0.66127350      56.50250810    4075.90887000    -670.75988200
H       -0.51182500      -0.30478950      -1.14396450      15.74551420    1759.27042000    -376.72428800
Br       1.65306400      -1.77401450       1.61965650   -8124.34903000  -18667.10990000    -204.58200100
6
Lattice="1.4030749999999976 0.0 0.0 0.0 3.5474559999999986 0.0 0.0 0.0 1.7604759999999988" Properties=species:S:1:pos:R:3:forces:R:3 CH3Br_centered=T charge=-1 oddNumberofElectrons=F E=79.46268896322323 pbc="F F F"
C       -0.55228300       0.79357400       0.85079200      65.46172930    -351.16080600    -111.24264100
Br      -1.48718600       2.05340400       2.06027000   -1035.07898000    2133.98054000    2987.93651000
H       -0.35959700      -0.12749900       1.40087900      -1.57862298   -1198.97403000      -0.89835793
H       -1.16499600       0.54508700      -0.01577600      -5.49557804     198.74604100      -4.97884798
H        0.41568500       1.08726000       0.44472500     -18.13067420     249.06292500     -97.88223390
Cl       1.48718600      -2.05340400      -2.06027000     994.82212300   -1031.65467000   -2772.93443000
6
Lattice="1.550529499999998 0.0 0.0 0.0 3.6115115000000007 0.0 0.0 0.0 1.807716499999998" Properties=species:S:1:pos:R:3:forces:R:3 CH3Cl_centered=T charge=-1 oddNumberofElectrons=F E=-1072.8863236741565 pbc="F F F"
C       -0.66264650       0.80008900      -0.75044050   -5130.30268000   34979.05560000  -50624.23340000
Cl      -1.72172050       1.88979100      -1.70953250   80178.05090000  820284.32400000   -3441.46952000
H        0.21740450       0.49248400      -1.31523250   -2878.76472000  -11493.44740000   11245.96130000
H       -1.22251050      -0.08482000      -0.44779950     270.97953700  -33599.75590000     894.94011900
H       -0.31326950       1.35169800       0.12235350  -72506.57740000 -325500.19300000  -67055.01100000
Br       1.72172050      -1.88979100       1.70953250      66.61444980 -484669.98300000  108979.81300000
6
Lattice="0.9663825000000017 0.0 0.0 0.0 3.121323500000001 0.0 0.0 0.0 0.5515624999999993" Properties=species:S:1:pos:R:3:forces:R:3 CH3Cl_centered=T charge=-1 oddNumberofElectrons=F E=-66337.22902410918 pbc="F F F"
C       -0.49750300       0.46887950      -0.40964350  335104.47500000 244210229.00000000   10981.86130000
Cl      -1.55961800       1.56170550      -1.37148750 -43273931.80000000 1422967270.00000000 -4782795.33000000
H       -0.39272600      -0.47519550      -0.94428850  332649.50200000 -409046965.00000000   -1442.07798000
H       -1.01004800       0.23665550       0.52388550   88952.24050000 410428067.00000000  -24785.14230000
H        0.44306500       0.93271350      -0.11250950 1279525.65000000 -1843774930.00000000  -19563.14990000
Br       1.55961800      -1.56170550       1.37148750 41237699.90000000 175216325.00000000 4817603.84000000
6
Lattice="1.0601154999999984 0.0 0.0 0.0 3.1075385000000004 0.0 0.0 0.0 1.1639089999999968" Properties=species:S:1:pos:R:3:forces:R:3 CH3Cl_centered=T charge=-1 oddNumberofElectrons=F E=-314.80744199145363 pbc="F F F"
C       -0.48804550       0.52139300      -0.53872250   -3739.08506000  849877.37800000    1590.84549000
Cl      -1.52214550       1.58539300      -1.47519650    9462.38067000 -4400490.35000000   29703.20530000
H       -0.05641850      -0.21155900      -1.22032750    2653.27650000 1223695.37000000    1254.03667000
H       -1.04149950      -0.07009200       0.19060950   -1224.72221000 -520612.20100000   -7289.54982000
H        0.26623050       1.14626600      -0.06049150   12192.19790000  238996.91200000   23922.72960000
Br       1.52214550      -1.58539300       1.47519650  -19344.04780000 2608532.88000000  -49181.26720000
6
Lattice="1.6701429999999977 0.0 0.0 0.0 3.7579249999999984 0.0 0.0 0.0 1.7643509999999978" Properties=species:S:1:pos:R:3:forces:R:3 CH3Cl_centered=T charge=-1 oddNumberofElectrons=F E=269.2370550332922 pbc="F F F"
C       -0.84374500       0.82639800      -0.80012100     202.69150400   -1923.82652000     408.48572000
Cl      -1.87275800       1.88516700      -1.73199100  -46367.27030000    2685.56381000    7223.48713000
H       -0.15794600       0.30021500      -1.46413600     -57.36178160    1907.26137000    -179.51064900
H       -1.46070900       0.04355900      -0.35895500     -55.28918390   -1375.02028000      68.35969680
H       -0.35205100       1.39955000      -0.01410000   -1223.06896000   -4376.24737000     238.00299200
Br       1.87275800      -1.88516700       1.73199100   47500.29870000    3082.26899000   -7758.82489000
6
Lattice="1.8075080000000003 0.0 0.0 0.0 3.856771499999999 0.0 0.0 0.0 1.9642274999999998" Properties=species:S:1:pos:R:3:forces:R:3 CH3Cl_centered=T charge=-1 oddNumberofElectrons=F E=367.6018546553498 pbc="F F F"
C       -0.85656250       0.92075000      -0.88675800     357.84897000   -5888.87782000     748.59047100
Cl      -1.88147350       1.97529800      -1.81491000  -23308.61010000   45403.61560000   48146.34800000
H       -0.57888550       1.38534200       0.05936600    -726.02188600   -7513.21451000      19.29050060
H        0.07664350       0.80436500      -1.43782900    -367.77583100    9697.98897000    -639.16338800
H       -1.31305050      -0.04499800      -0.66984900     377.66971400   -5689.26673000      72.31140940
Br       1.88147350      -1.97529800       1.81491000   23666.88910000  -36010.24550000  -48347.37700000
6
Lattice="1.0092680000000005 0.0 0.0 0.0 3.233822 0.0 0.0 0.0 1.318832500000001" Properties=species:S:1:pos:R:3:forces:R:3 CH3Cl_centered=T charge=-1 oddNumberofElectrons=F E=892.8906377049922 pbc="F F F"
C       -0.49362150       0.51564650      -0.44860300    -323.88360800   82899.10180000   -3006.23568000
Cl      -1.59004750       1.64377450      -1.44151600  -49657.55940000 -117065.03300000  -87927.94220000
H       -1.18829350      -0.09274050       0.13053900   -2674.48501000  -28329.11380000    -923.77503500
H        0.25338150       1.04206750       0.14550300   -1309.78945000    2018.85827000    -389.81980900
H        0.02219750      -0.17335050      -1.11741900    2716.26819000  -20546.77040000     275.42710000
Br       1.59004750      -1.64377450       1.44151600   51249.44930000   81022.95710000   91972.34570000
6
Lattice="1.9278764999999982 0.0 0.0 0.0 3.931632499999999 0.0 0.0 0.0 1.3159100000000006" Properties=species:S:1:pos:R:3:forces:R:3 CH3Cl_centered=T charge=-1 oddNumberofElectrons=F E=1589.5845844241255 pbc="F F F"
C       -0.85135900       0.94989800      -0.97797850   -3096.56115000   -1088.05194000      72.62932710
Cl      -1.88715200       2.01564500      -1.91598750  147616.33800000  168389.97800000  209956.54200000
H       -1.34010100      -0.02419100      -0.95770150     706.67369300   -3590.33729000      42.69243150
H        0.16580600       1.06845100      -1.35144050   -6136.29193000    4930.99112000      72.70069890
H       -0.84565200       1.26636400       0.06506050   -3407.63510000    2967.26769000    -350.24613900
Br       1.88715200      -2.01564500       1.91598750 -135682.52400000 -171609.84800000 -209794.31900000
6
Lattice="1.6411470000000001 0.0 0.0 0.0 3.8540019999999995 0.0 0.0 0.0 1.6320219999999992" Properties=species:S:1:pos:R:3:forces:R:3 CH3Br_centered=T charge=-1 oddNumberofElectrons=F E=254.25691519079257 pbc="F F F"
C       -0.60524750       1.03589950       0.89906250    -980.78261100   21211.09770000    1729.97655000
Br      -1.54787050       2.30613150       2.11852850     331.56515500  -12874.88300000    -467.42291500
H       -0.07624750       1.55577450       0.10031850   -1833.25620000   -6739.11571000    1412.49807000
H       -0.00174650       0.32731850       1.46634050      10.38130270    4425.88342000      64.07218460
H       -1.40606050       0.40842150       0.50782950     -19.57259500    2799.92394000    -219.27033200
Cl       1.54787050      -2.30613150      -2.11852850    2491.66495000   -8822.90637000   -2519.85355000
6
Lattice="1.1937245 0.0 0.0 0.0 3.378857 0.0 0.0 0.0 1.217534500000001" Properties=species:S:1:pos:R:3:forces:R:3 CH3Br_centered=T charge=-1 oddNumberofElectrons=F E=-2334.691543855223 pbc="F F F"
C       -0.46934850       0.72339750       0.72437600  -43790.73800000 -450477.01000000  -11974.80460000
Br      -1.40057950       1.97827750       1.92910300  -17785.28350000 3027871.35000000  -10552.54670000
H        0.19824850       1.32989750       0.11236300    1855.10737000 -1938771.02000000  -51612.26890000
H       -0.03344350      -0.07213450       1.32871200   -8312.97408000 -629857.89100000    1554.00433000
H       -1.26305150       0.28852350       0.11691000    5358.68874000 -348237.90000000     690.62740500
Cl       1.40057950      -1.97827750      -1.92910300   62675.19950000  339472.47900000   71894.98850000
6
Lattice="1.3142709999999997 0.0 0.0 0.0 3.4930830000000004 0.0 0.0 0.0 1.6942139999999988" Properties=species:S:1:pos:R:3:forces:R:3 CH3Br_centered=T charge=-1 oddNumberofElectrons=F E=185.7112596683771 pbc="F F F"
C       -0.58320600       0.73106500       0.68853700     -17.02028070     203.69469800      36.44155690
Br      -1.51132800       1.98175500       1.88924000   -3749.59260000    5294.92210000    4920.50841000
H       -1.28481500      -0.05502300       0.40939900       5.89812594    -706.42435500      -8.54381078
H       -0.27130500       1.21188400      -0.23862800    -370.96313800    -147.99856400     -65.83555050
H        0.30482200       0.28015800       1.13145500     -15.01331880     472.66451900      11.98836270
Cl       1.51132800      -1.98175500      -1.88924000    4146.69121000   -5116.85840000   -4894.55896000
6
Lattice="1.009503500000001 0.0 0.0 0.0 3.2158885 0.0 0.0 0.0 1.3511015000000004" Properties=species:S:1:pos:R:3:forces:R:3 CH3Br_centered=T charge=-1 oddNumberofElectrons=F E=80.41948942546757 pbc="F F F"
C       -0.39613050       0.61337300       0.57340550     920.66889100   -5994.54943000    2144.12491000
Br      -1.33599750       1.87989100       1.78930550    4123.60651000   55626.67170000   -4409.15791000
H       -1.05922050       0.29188100      -0.22974650    -401.49097700   22767.56090000     458.35774000
H        0.50317350       1.03528300       0.12468850    -530.16383900    1879.06001000   -1473.28309000
H       -0.21348350      -0.29378400       1.14943950      67.10501100  -64362.90250000     226.27660700
Cl       1.33599750      -1.87989100      -1.78930550   -4179.72560000   -9915.84065000    3053.68174000
6
Lattice="1.495395000000002 0.0 0.0 0.0 3.731034000000001 0.0 0.0 0.0 1.9369435000000017" Properties=species:S:1:pos:R:3:forces:R:3 CH3Br_centered=T charge=-1 oddNumberofElectrons=F E=-299.46598452035107 pbc="F F F"
C       -0.64215900       0.85323600       0.84999450    -359.18172400  -12615.98290000    1885.26969000
Br      -1.59448800       2.13654600       2.08201450  -12327.03200000    8221.51681000   -1737.60410000
H       -0.68483500      -0.15897900       1.25210850     146.34024300     517.84418300     900.34549600
H       -1.16952500       0.89112000      -0.10319450   -1349.19200000   -1503.72410000   -5847.41127000
H        0.37650900       1.23715100       0.79493850   -1049.11275000    8749.40817000    1925.92371000
Cl       1.59448800      -2.13654600      -2.08201450   14938.17820000   -3369.06219000    2873.47647000
6
Lattice="1.1088874999999998 0.0 0.0 0.0 3.2721975000000008 0.0 0.0 0.0 1.208997" Properties=species:S:1:pos:R:3:forces:R:3 CH3Br_centered=T charge=-1 oddNumberofElectrons=F E=333.1368819820623 pbc="F F F"
C       -0.51143100       0.59745650       0.56346450     427.08656800    7235.06914000    -178.13330000
Br      -1.43294900       1.83924850       1.75562650    5381.58695000   -3139.15379000   -2668.44850000
H        0.11520000      -0.13112750       1.07786950    -136.87467200    5321.70809000     188.05170300
H       -1.20376400       0.04535750      -0.07211850      89.58436510     607.73165900     101.09614100
H        0.15539100       1.25642350       0.00740050     232.90176200    6141.58959000     412.34790900
Cl       1.43294900      -1.83924850      -1.75562650   -5994.28497000  -16166.94470000    2145.08604000
6
Lattice="1.776116 0.0 0.0 0.0 3.926665 0.0 0.0 0.0 1.7203269999999993" Properties=species:S:1:pos:R:3:forces:R:3 CH3Cl_centered=T charge=-1 oddNumberofElectrons=F E=581.5254919381503 pbc="F F F"
C       -0.80431650       0.97179950      -0.72900550     -52.38404590   -3807.79562000   -1559.80967000
Cl      -1.86426450       2.06240050      -1.68888850  -41545.32250000  131199.15800000   12432.64850000
H       -0.27718050       0.30700850      -1.41331850     611.80009300   -5519.70285000    -281.10040500
H       -1.49050050       0.39471950      -0.10914150     439.16543600   12183.39280000    -296.13923600
H       -0.13138550       1.40226450       0.01259050   -3385.77011000   16732.35270000    1614.46480000
Br       1.86426450      -2.06240050       1.68888850   43932.51110000 -150787.40500000  -11910.06390000
6
Lattice="1.1888290000000001 0.0 0.0 0.0 3.3977049999999984 0.0 0.0 0.0 0.7290009999999985" Properties=species:S:1:pos:R:3:forces:R:3 CH3Br_centered=T charge=-1 oddNumberofElectrons=F E=-3567.420827687322 pbc="F F F"
C       -0.54252550       0.64630350       0.61383050  -41877.99610000 -2600699.23000000    8932.41988000
Br      -1.48345450       1.91425050       1.83110150  -30728.18630000 -9292776.30000000   -8535.80086000
H        0.39602350       0.35858950       1.08759050   36640.02010000 9595504.73000000   -1735.49480000
H       -1.13430550      -0.24573550       0.40849550   11691.14290000 7094597.96000000     530.64825100
H       -0.45636050       1.09907550      -0.37393250 -282836.78900000 9873562.74000000   -9089.78186000
Cl       1.48345450      -1.91425050      -1.83110150  307111.80800000 -14670189.90000000    9898.00939000
6
Lattice="1.3153579999999998 0.0 0.0 0.0 3.564831 0.0 0.0 0.0 1.6378275000000002" Properties=species:S:1:pos:R:3:forces:R:3 CH3Cl_centered=T charge=-1 oddNumberofElectrons=F E=-318.87006321682424 pbc="F F F"
C       -0.64023750       0.67512050      -0.60739600   -2552.45420000   -1210.56221000   -1122.18936000
Cl      -1.74894550       1.81588550      -1.61143400    8259.45447000  -43624.30720000  -21446.06180000
H        0.39315450       1.02170550      -0.61612200    -917.60668600   18264.36790000    3083.35416000
H       -0.59147550      -0.29060350      -1.11048400    -113.87564000  -47273.54910000   -3328.16583000
H       -0.95377650       0.54777150       0.42873700    -916.30328900   43913.47490000    -630.04822000
Br       1.74894550      -1.81588550       1.61143400   -3759.21465000   29930.57570000   23443.11100000
6
Lattice="1.4943925 0.0 0.0 0.0 3.6902355 0.0 0.0 0.0 1.8545904999999987" Properties=species:S:1:pos:R:3:forces:R:3 CH3Br_centered=T charge=-1 oddNumberofElectrons=F E=110.4456719237993 pbc="F F F"
C       -0.64742250       0.84697000       0.82590050     462.02860600    -406.68762900     -62.05234150
Br      -1.58279850       2.10743700       2.03598850   -3081.93940000    9379.36764000    6418.55887000
H       -0.80364550       1.05094500      -0.23337250     149.26612600     -90.39742640     -35.62101130
H        0.43877750       0.89014300       0.90591750    -321.41273300      70.44336670      42.50860590
H       -0.96429050      -0.18926400       0.94387750      -4.88893331     297.72830100     -20.41156800
Cl       1.58279850      -2.10743700      -2.03598850    2796.94634000   -9250.45425000   -6342.98256000
6
Lattice="1.826543000000001 0.0 0.0 0.0 4.010883 0.0 0.0 0.0 1.9618735000000012" Properties=species:S:1:pos:R:3:forces:R:3 CH3Cl_centered=T charge=-1 oddNumberofElectrons=F E=-6.00388747284843 pbc="F F F"
C       -0.85342100       0.97312200      -0.71184950     -83.00922680     666.69547900     108.10610600
Cl      -1.93002600       2.08085700      -1.68681550   -5890.23366000    4447.68583000   15472.66370000
H        0.14040500       1.39624100      -0.56563250      20.95001650    -698.91042700    -306.82441900
H       -0.66145100       0.04046200      -1.24231150      14.72360590      -7.67289618     -24.84914300
H       -1.28382900       0.69884600       0.25128550     -78.65244770     588.32877100      13.71133090
Br       1.93002600      -2.08085700       1.68681550    6016.22172000   -4996.12675000  -15262.80760000
6
Lattice="1.9673785000000006 0.0 0.0 0.0 4.076490500000002 0.0 0.0 0.0 2.454290499999999" Properties=species:S:1:pos:R:3:forces:R:3 CH3Cl_centered=T charge=-1 oddNumberofElectrons=F E=-26.98897758387191 pbc="F F F"
C       -0.95297500       1.01440350      -0.80898500     312.42415200     537.43795000   -1116.63703000
Cl      -1.99250100       2.08398950      -1.75037400    -426.22940100    -688.29522000   -4569.96643000
H       -1.10679100       1.34749950       0.21740700     -53.42815480    2144.42947000    -235.64591200
H        0.07811400       1.19679150      -1.11179500     -59.72211000   -2045.19571000    1009.32730000
H       -1.22828300      -0.02701350      -0.97558000      72.29489430     112.81139700     164.55133200
Br       1.99250100      -2.08398950       1.75037400     154.66061900     -61.18789040    4748.37073000
6
Lattice="1.6149775000000002 0.0 0.0 0.0 3.7738785000000004 0.0 0.0 0.0 1.7069314999999996" Properties=species:S:1:pos:R:3:forces:R:3 CH3Br_centered=T charge=-1 oddNumberofElectrons=F E=-94.76849289633475 pbc="F F F"
C       -0.76229650       0.85268100       0.81855300      55.93798350    1702.38550000     337.38311700
Br      -1.68193750       2.09194100       2.00828400   -1103.20459000    1024.00635000    7233.86149000
H       -0.30464750       1.40228400      -0.00400000    -316.94819100     845.85217100      39.09281360
H        0.14153250       0.49125400       1.30901400      23.24746830    1003.39381000       1.36130431
H       -1.23713750      -0.07456800       0.49787700     -63.93848400   -2242.33400000     -14.73611480
Cl       1.68193750      -2.09194100      -2.00828400    1404.90581000   -2333.30382000   -7596.96261000
6
Lattice="0.9553650000000005 0.0 0.0 0.0 3.1502740000000014 0.0 0.0 0.0 0.8148289999999996" Properties=species:S:1:pos:R:3:forces:R:3 CH3Cl_centered=T charge=-1 oddNumberofElectrons=F E=1617.4805389290925 pbc="F F F"
C       -0.49940050       0.45596450      -0.44323050     537.90354300 -1062551.30000000     891.07982800
Cl      -1.58121450       1.56905950      -1.42291350  -52256.47450000 -3089025.44000000   -6810.21202000
H       -1.04004150      -0.46505650      -0.22521250    5416.30588000 1834180.76000000       0.72881633
H       -0.05040250       0.87286650       0.45826050   -8177.28494000 -464688.31500000   -4795.93649000
H        0.40485650       0.33341850      -1.03937850   -2146.63366000  163691.99600000    -238.49251600
Br       1.58121450      -1.56905950       1.42291350   56626.18370000 2618392.31000000   10952.83240000
6
Lattice="0.9904335 0.0 0.0 0.0 3.1562535 0.0 0.0 0.0 1.515577500000001" Properties=species:S:1:pos:R:3:forces:R:3 CH3Br_centered=T charge=-1 oddNumberofElectrons=F E=-2165.0845160416793 pbc="F F F"
C       -0.35987600       0.63055750       0.53862850   -4985.12989000 -896393.81600000  -48260.24010000
Br      -1.28246400       1.87378950       1.73217350  -31831.28610000 -886526.75900000 -201450.89600000
H       -0.46957000       1.04600750      -0.46310950   72172.80370000 2358226.33000000   24012.70690000
H        0.69071900       0.62179150       0.82893250   -8952.12223000 -423930.65800000  102167.76900000
H       -0.84863100      -0.34089150       0.46440650    -248.45074700 2315557.57000000  -43233.24080000
Cl       1.28246400      -1.87378950      -1.73217350  -26155.81470000 -2466932.67000000  166763.90100000
6
Lattice="1.1522939999999995 0.0 0.0 0.0 3.242855500000001 0.0 0.0 0.0 1.6257514999999998" Properties=species:S:1:pos:R:3:forces:R:3 CH3Cl_centered=T charge=-1 oddNumberofElectrons=F E=-4705.577348957617 pbc="F F F"
C       -0.58877150       0.55758500      -0.59470900  -18550.84920000  415333.27900000  283679.96600000
Cl      -1.62208250       1.62077300      -1.53046700 -261164.31900000 -3757347.22000000 -600450.73600000
H       -0.63155350       0.99419800       0.40310900  -19203.24000000  995367.88100000   88150.40010000
H       -1.02120150      -0.43500300      -0.46871300     401.22946900 -1010908.74000000   98743.52740000
H        0.45156550       0.54838200      -0.91983900    2902.30400000  134246.01600000 -288307.23800000
Br       1.62208250      -1.62077300       1.53046700  295614.87500000 3223308.79000000  418184.08100000
6
Lattice="0.9350300000000011 0.0 0.0 0.0 3.0613840000000003 0.0 0.0 0.0 0.6809820000000002" Properties=species:S:1:pos:R:3:forces:R:3 CH3Br_centered=T charge=-1 oddNumberofElectrons=F E=2056.5713155516387 pbc="F F F"
C       -0.32023600       0.61479400       0.59642400   21130.43970000 -425234.61400000    -279.09559300
Br      -1.22601200       1.83537200       1.76821800  -64265.49080000 1380083.38000000  -29779.03870000
H        0.64528000       0.34037600       1.02135800   -9015.91377000   75451.66940000     845.30344300
H       -0.89091500      -0.28891500       0.38256800   10980.19290000 -282679.05200000      92.72154620
H       -0.30006800       1.01058300      -0.41899200   30118.63900000 -2062263.61000000    8112.87956000
Cl       1.22601200      -1.83537200      -1.76821800   11052.13300000 1314642.22000000   21007.22970000
6
Lattice="1.2225769999999976 0.0 0.0 0.0 3.3354319999999973 0.0 0.0 0.0 0.45761699999999905" Properties=species:S:1:pos:R:3:forces:R:3 CH3Cl_centered=T charge=-1 oddNumberofElectrons=F E=-24568.552422965848 pbc="F F F"
C       -0.63719850       0.58537850      -0.52567950  219102.10800000 -1348203.86000000    4018.50505000
Cl      -1.67856950       1.65686250      -1.46873650 -6767860.84000000 8206454.82000000 -23892619.30000000
H       -0.91820250      -0.46058550      -0.64850950  169679.81500000 -959524.81300000   -5897.20300000
H       -0.77590050       0.80841050       0.53220250     598.76906900 7724793.92000000  -11248.90260000
H        0.43184750       0.69013250      -0.71076450  -95499.70830000 2419953.96000000    3971.14546000
Br       1.67856950      -1.65686250       1.46873650 6473979.86000000 -16043474.00000000 23901775.70000000
