&MOTION
&GEO_OPT
    MINIMIZER LBFGS
&END
&END

&GLOBAL
    RUN_TYPE GEO_OPT
&END

