     280
 i =      173, E =     -7875.7397681765
  O        5.5387412076       10.7988893233        8.7756240437
  O         8.5131567844       14.2555555684        0.4510268240
  O         1.9358075216        1.2593686860        9.7992019625
  O         8.9403126864        7.1663510708        4.5398900397
  O         4.0884094512        6.7872407595       14.7410834076
  O         6.2832845277        5.5163034191       12.8063161860
  O         1.2810364196       -0.1396693743        7.4911045352
  O        11.7093322721        8.8294429814        8.5760150726
  O         8.8659788409       11.8121282037       12.3534555007
  O         5.3410532996       10.5234116124        2.2204479872
 Ta         3.0370737142       10.9199318381        5.8503031186
 Ta        11.9214957367       13.4633956996       13.1426535416
 Ta         2.5541738084        2.1917071935        0.2990537578
 Ta        12.2597300288        6.1371885489       15.8005169135
  O        12.4796470581        5.7809838305        0.6492705136
  O         9.4172187829        7.2280140218        8.9638553283
  O        11.5750476875        5.0264065572        8.5149366362
  O         4.9576021758        7.5407748664       17.1339180165
  O         5.5281039451        1.3287416236        9.8895394265
  O         8.6767256913       14.8833263500        9.8691355867
  O         1.4376755928        1.9012773775       17.9190704226
  O        10.3302577606        7.1661314889       19.1825653129
  O        11.5091680631        4.5365867235       15.0811691716
  O         7.2715336206        6.0292436242        6.3000137195
 Ta        10.5968597740        0.7042408219       14.6890719956
 Ta         0.1817415885       14.8622213467        5.9449327028
 Ta         4.9931057903       12.3749024947        2.4723734957
 Ta         9.0698691712       13.3057080814       15.9306099873
  O        10.7710396615       11.4710924832        8.1301604297
  O         0.6182844629       13.0988246636       16.9826809982
  O         5.3612775181       14.1468107806       18.4082096608
  O        11.1818993943        9.8284340170       17.9746785819
  O         7.0820828466        8.2487644941       13.8919676161
  O        11.3630430051        4.2659234726       12.3630348741
  O         9.1604685025        5.6400307442       14.0922954252
  O        11.6737733050        8.9757145738       11.9071016993
  O         2.8032925489       14.2147883865       14.0796804349
  O         4.1080902586        8.0528063528        2.8507370765
 Ta         5.1614648315        2.0901532808        5.6817367620
 Ta        10.5118301628        5.7592713355        0.8478475190
 Ta        10.6363269377        6.2213384734        4.4416744909
 Ta         7.9491388220        1.7708110616       16.4065940595
  O         6.5641915453        1.2533328664       17.5579511590
  O         1.2301140157       11.5525707529        5.1872341087
  O         4.0671588652        1.0929119734       16.9554901742
  O         6.0489191497        6.9714080699        1.0933314186
  O         1.0855818608       11.8578685978        2.3527213580
  O         3.2384628951       11.6781526633       18.6216386147
  O         6.6777977609       10.9133940574       13.9657393205
  O         3.7275318329       15.3018448054        8.3423518154
  O         1.7695399435        3.9769862018       -0.0523234694
  O         7.8873551231        6.4559847716       17.5409860848
 Ta         3.1038843502        2.5406448962       12.7377511087
 Ta         3.9576725106       14.3910846037       12.7160368078
 Ta         5.0143483983        0.8693256256       18.6823005302
 Ta         3.4540675467        7.7804669017       18.3066931763
  O         1.3246983962       14.4767270830        2.7162397380
  O         5.0109552259        2.5687449793        3.6383928427
  O        10.5707329481        6.5348496574       16.5769104434
  O         0.5784374265       11.0862092766        9.3652752677
  O         8.2797715795        0.4369153068        7.2715207214
  O         7.0685145319        5.4630022625        3.9871347862
  O         5.2127794822       14.0738635136        6.0264466971
  O         5.0272902245        3.0072687241       12.8744868967
  O         7.8772996870        9.6368842439        8.3823322647
  O         9.8376455137        9.4050093276        6.6840786600
 Ta         6.0934481623       10.0089694684        7.2045914607
 Ta         2.8022031694        6.9614753706       10.3387926508
 Ta        11.9075478614       12.3981579787        9.2137883065
 Ta         3.2233003725        7.3233069309        4.4802060208
  O        10.9435526229       15.1839801522        6.1651928803
  O        11.0793197574       11.7871416423       10.7259382655
  O        11.5505450693        2.6417052468        3.7025156408
  O         8.9795337034        2.0336726336       18.0385026681
  O         7.4610967269        3.6602329277       16.3768773254
  O         7.6411658311        3.3677836699        0.7290894809
  O         3.4951003491        5.4834664045        3.4296103123
  O         4.0015297232        8.4191894529       10.4109643880
  O         9.3542065552        9.5371425708       10.6648732406
  O        12.5195035590       13.4318664461        4.6031744563
 Ta         5.5293055037        7.9508283624       15.3626634497
 Ta        10.3556220895        0.1218139671       10.6092527912
 Ta         4.8725707525       10.0992272121       10.5372344985
 Ta         7.7211494631        6.5253879570       13.3518303383
  O        10.6455071851        6.5816261047        6.5700958563
  O         9.1123580973        2.3544067738        5.3148750855
  O         0.5562181697       12.8337728848       14.4764001360
  O        11.5924296521       10.9685747575        3.9707255721
  O         3.2408842377       11.0575869538       10.0517976027
  O         4.9761203683        8.5164636278        7.6747381078
  O        11.2894409206        8.1975079946        4.6834751858
  O        12.1617558545        5.1311546492        4.7445951388
  O         1.3254350524        3.8674650269        7.2621442881
  O         7.3946366581       14.0978191904       11.8645153658
 Ta        10.8246068123        9.4958191753        3.3146379038
 Ta         1.1990959023        5.5836727728       18.8896957981
 Ta         7.3577058852        0.4804802109       13.1408758901
 Ta         3.7928266975        1.7547409950        9.4390302214
  O         1.9981700593       14.2649020007        5.2752263767
  O         2.9569714154        9.0727926155        5.0829030925
  O         1.4577508213        6.9045305244       11.6803216404
  O         3.0874577155        4.3759935199       13.5969182140
  O         4.4558258991        8.7178582470       19.6104315308
  O         0.4512204866       13.3234163308       11.8919152161
  O        11.9260220460        6.9138089110       13.9366927997
  O         2.1169734229        9.8062525124        1.2278323373
  O         7.4680301624        1.6514132090       11.7627543680
  O         0.5532928827        8.0028322634        6.8908105158
 Ta         7.9409018356        4.3839551947        5.3897681183
 Ta         8.0725682503        8.2416940614       10.0625478630
 Ta         6.8269815237        5.3611501203        0.8011788890
 Ta         9.8944839882       10.3140798967       19.3709806553
  O         4.8349140440        5.5000343743        7.5937777439
  O         1.6024753900        3.5457209342        4.2671496286
  O         8.4629099073       12.2107418698        8.8931269875
  O         0.1247311000        5.2744229946       17.4277687683
  O         8.7354092613        9.1127756992       18.5338092205
  O         6.3628679479       14.1811678318        8.9669552711
  O        11.7161620778       11.3652276657       13.3204645911
  O         6.7029398668        9.2782330921       16.1126141120
  O        10.5136278795       14.1176832056       11.9021671931
  O         5.4962832422        0.0781836771       13.1879108393
 Ta         0.5665193619        0.1939978403        9.3003132680
 Ta         9.5000109670        2.8506235350        0.0935395623
 Ta         9.3222960241        7.5427737187       17.5424871102
 Ta         6.3548355552        2.6081204931        2.1130277389
  O         3.4298582271       12.5038730309        1.4891053279
  O         2.3079737131       10.1673530726        7.3813269654
  O         6.1160452275        5.0197814536       18.6231828024
  O         7.6081224885       11.2149764757        6.3170529836
  O         0.9584651952       13.5028344806        9.5412296553
  O         3.0300081463        1.7121921116       14.4096550430
  O         4.0842721992        5.8204536295       11.1134113444
  O         2.6641722755        6.1501283778       17.6170129670
  O        10.8053787207        6.5370489325        2.6279982967
  O         7.7579821720        2.9149931885        3.3204157690
 Ta         7.4650331246       13.2344036673       10.0299122928
 Ta         7.2037813611       12.4273104471       12.9590753015
 Ta         6.3321512519       14.3346258015        4.5016773886
 Ta        12.6349028695        3.2803360520        5.0213276720
  O         6.7996633226        8.3755986696        3.1103678734
  O        12.2099604420       15.1825706010       13.8301714073
  O         9.2317623590        4.5613698534        9.8095665069
  O        10.0008524054        9.5909505963        1.5608594818
  O         0.3760060025        1.3404704496        5.3388747648
  O         6.4797984516        0.9387213408        4.8974503630
  O         6.5050978963        3.4648235861        5.9175819720
  O         6.5558181075        9.1321296056       10.6683716997
  O        11.3360724169        2.2305730190       19.1085911418
  O         3.3707260296       12.0391325550        4.0858320298
 Ta         1.7577372513       13.8336769036       15.6896033497
 Ta         7.3048030475       12.9343175767       19.1085922788
 Ta         0.1799565760       14.7445834831        1.3137376381
 Ta         3.0789711252        5.2704905812       15.2243319739
  O         7.4525696384       14.9145366945        2.8626382166
  O         7.8436065915       13.4547040460       17.3552891027
  O         4.8119407763        4.7440442671       16.1791890092
  O         1.3636500793        5.9709878838       15.1372872720
  O         2.6737076599       11.4090309711       14.4903427635
  O         5.1307467622       12.8024175842       13.2702158574
  O         3.3194518595        0.4451769950        0.0646462774
  O         9.3775185874        9.5830523172       13.4514592297
  O         9.2387780026        8.6614718373       15.9677675319
  O         5.9083696520        1.2623333394        0.8942139275
 Ta         4.5149812732       11.1134056209       14.1755867292
 Ta         6.4810743652        5.1347588650       16.7696217082
 Ta         9.2424574853        0.4608893586        5.6967034298
 Ta         1.9022781832       12.1158508250       10.7817020083
  O        10.4696422378       13.8278428032       14.6896926256
  O        10.0092314893        4.5115911301       18.9459901152
  O         8.0353926557        2.2084035393        9.1974894201
  O         4.9100973303       14.1059692302        3.3229209796
  O        12.2829194308        0.8060041405       10.9382036285
  O         6.7413324189        6.3438253725       15.2602743726
  O         7.7200077621       13.6447117371       14.3473671476
  O        11.6036739027        3.2227577563        6.5872896167
  O         8.9808640891        4.5044147303        7.0198268013
  O         6.8739760975        7.0412635684        8.9581754616
 Ta        11.3865547264        8.3157868164        6.8173521502
 Ta         5.2186074918        4.3951520050       11.6882008055
 Ta        12.5450465492        3.4191012959        8.2274962237
 Ta         0.8250206247       10.8908157799       14.1565948190
  O         8.7855059464       11.4707649848       15.5378627883
  O         9.9806791600       11.9986533444        5.8261937238
  O         2.4727260269        3.6540523637       16.1891147370
  O         2.3343831152        9.0090627526       17.6365184494
  O        12.7386180769        7.9072790248       16.5068273507
  O         8.4758671307       11.5729577432       19.4828466864
  O         6.2056476832       12.9371032454        1.2237836771
  O        11.2655864456        2.1769291898       13.5037092469
  O         7.0928008674        1.3925891160       14.7688078290
  O         3.7011359201        0.9545570621        5.7725337616
 Ta         1.6502089583       12.8644447991        3.7863072163
 Ta         9.1265852204       14.6953172747        2.1460211907
 Ta         9.8052495877        5.5344322223        8.3186795244
 Ta         8.5285929977       12.0014588466        4.4456705828
  O         9.2624841405        0.5250962562       13.3758983961
  O         9.0585760339       10.3297301572        3.8962567688
  O         3.2229304239       13.3688080794       11.3087257944
  O         3.6438102326        3.1914925143       10.8650556434
  O        11.9814366057       14.7119115587       18.7484911692
  O        12.4138890765       13.0754793023        7.0938113603
  O         4.5385277559       10.4630171880       12.3089220685
  O         3.3781138341        0.8166034490       11.8966977762
  O         4.4744079770        9.3240263040       14.6685803131
  O         1.7173070455        7.4770368408        3.1668295393
 Ta         5.3679609815        8.6741805653        1.8057542835
 Ta         8.3929307065        3.1691229919       10.8355464069
 Ta         0.1229677569        7.8307341215       12.7092972859
 Ta         5.9760064022        6.9526209870        7.3704227633
  O         9.7107312256        0.6147429122        3.7682500764
  O         2.5602541630        5.8178491848        8.8361635413
  O         1.5026863630       11.0728259152       12.2063892997
  O        -0.0035354882        3.4147225209       10.1302875030
  O         4.9112665322       11.7899942298       15.9315411860
  O         3.1814224762       12.6012036324        6.8700555260
  O         6.0456349106       11.6843443539       18.3822180767
  O         6.4917931944       11.9705047222       11.0594900862
  O         6.6287796619        4.0078529974       10.6125999589
  O         5.0565791302        7.1077601831        5.1178742191
 Ta         3.4507477550       14.4557872467        6.7016612711
 Ta         6.9773079106        0.8293039471        8.6402869635
 Ta         3.1034218767        4.8288046127        7.2539015443
 Ta         7.0591471751        7.2741133102        4.5607600409
  O         8.2344930942        7.1251869239       11.6247213474
  O         3.2512360646       13.6441582478       16.7075482601
  O         9.5522443422        2.5104605312       15.1532557349
  O        10.5658797703       12.8862145623       17.1602819667
  O         3.8548777729        3.6659365930        5.5928775600
  O        11.5911565116        1.1621109607       16.4294382692
  O        12.2791695604        1.5267923260        8.3894866881
  O         3.6943211401        3.0587725174        8.1689424414
  O         1.0309686236        9.0048941388       13.7347218097
  O         2.6827713820        6.1056183380        5.9564569769
 Ta         1.1534135628        8.2595794876        1.5449680471
 Ta         1.9338519613       11.6049968787        0.5700312400
 Ta        12.2117895243        2.7040642519       11.7839816073
 Ta        10.2685757725       10.4094443771       12.0519134113
  O        10.1456624148        2.0234584936       10.9077346527
  O        12.3548026324        8.9671234022        2.3127833542
  O         1.1975569727        2.7154754565       12.4648165307
  O        11.0708133029       11.8725625548        0.1282550044
  O         0.6319104273       11.1100426110       18.6815621114
  O         1.3396403106        0.3595394821       15.9874848063
  O        12.3478015781       10.2199206637        6.5593613578
  O         6.6804251241       12.3697816921        3.9581996457
  O         6.9227727766        8.4414184444        6.1986094072
  O        11.3663012724       14.3523433076        9.2956799514
 Ta         3.3382783047        3.7411036242        3.6555716417
 Ta        11.9587239692       11.8136576243        5.7554724891
 Ta        12.3746697824        1.2183321877       18.0616845960
 Ta         9.6993588535        2.5870883464        3.2974507593
  O         4.1418998868        2.6549077573       18.9603096212
  O         4.9287408560       10.7299398136        5.9689810121
  O         0.8332136175       13.2572894183        0.2789008874
  O         1.6364369478        8.2944734297        9.4875899338
  O         9.6130398149        4.5595865772        4.2794228110
  O         9.2917597402       12.9685340585        3.0451346805
  O         5.5976204642        4.2548342628        1.8169035159
  O         9.1137490718       15.3792717401       16.0453963226
  O         2.3023347414        7.0092087313        0.3789492368
  O        10.1734773264        3.8117390149        1.8193584180
 Ta         9.0436320539       10.8682524631        7.5322726834
 Ta         0.2661846744        9.3366295421       17.6069106534
 Ta         2.6030512305        1.8385947533       16.2317967739
 Ta        10.2053681037        3.9038639789       13.9127895597
  O         8.5468746390        5.8886087393        1.1731174232
  O         2.9341012587        2.7412394019        2.0343444100
  O         8.7842140832        3.7354728131       12.5564757993
  O         0.4454267901       10.4641444712       15.9099943134
  O         0.7523680986        1.1581884958        0.6754514093
  O         8.2136357411       14.0168935723        5.2330769210
  O         9.3607356997        1.5014872674        1.6019601400
  O         0.3170990377        8.3646699428       19.2442147322
  O         5.8444706113        1.5063323383        7.3579382315
  O        11.2002993364       14.6535232086        1.8790351743
 Ta         8.1425717150        9.7565708926       14.9896154074
 Ta        12.0474622512       12.7627611696       18.2950388123
 Ta         4.5551502131       12.5073109818       17.6230591855
 Ta         0.8536072518        9.3164501120        8.2381387215
