       8
 i =        1, E =       -14.5567965931
 Si         0.0000000000       -0.0000000000       -0.0000000000
 Si         1.3576743750        1.3576743750        1.3576743750
 Si         2.7153487500        2.7153487500       -0.0000000000
 Si         4.0730231250        4.0730231250        1.3576743750
 Si         2.7153487500       -0.0000000000        2.7153487500
 Si         4.0730231250        1.3576743750        4.0730231250
 Si         0.0000000000        2.7153487500        2.7153487500
 Si         1.3576743750        4.0730231250        4.0730231250
       8
 i =        2, E =       -14.5567965931
 Si         0.0000000000       -0.0000000000       -0.0000000000
 Si         1.3576743750        1.3576743750        1.3576743750
 Si         2.7153487500        2.7153487500       -0.0000000000
 Si         4.0730231250        4.0730231250        1.3576743750
 Si         2.7153487500       -0.0000000000        2.7153487500
 Si         4.0730231250        1.3576743750        4.0730231250
 Si         0.0000000000        2.7153487500        2.7153487500
 Si         1.3576743750        4.0730231250        4.0730231250
