 DBCSR| CPU Multiplication driver                                           BLAS
 DBCSR| Multrec recursion limit                                              512
 DBCSR| Multiplication stack size                                           1000
 DBCSR| Maximum elements for images                                    UNLIMITED
 DBCSR| Multiplicative factor virtual images                                   1
 DBCSR| Use multiplication densification                                       T
 DBCSR| Multiplication size stacks                                             3
 DBCSR| Use memory pool for CPU allocation                                     F
 DBCSR| Number of 3D layers                                               SINGLE
 DBCSR| Use MPI memory allocation                                              F
 DBCSR| Use RMA algorithm                                                      F
 DBCSR| Use Communication thread                                               T
 DBCSR| Communication thread load                                             83
 DBCSR| MPI: My node id                                                        0
 DBCSR| MPI: Number of nodes                                                   1
 DBCSR| OMP: Current number of threads                                         2
 DBCSR| OMP: Max number of threads                                             2
 DBCSR| Split modifier for TAS multiplication algorithm                  1.0E+00


  **** **** ******  **  PROGRAM STARTED AT               2025-07-03 15:06:52.318
 ***** ** ***  *** **   PROGRAM STARTED ON                       BOOK-4GL9QDET17
 **    ****   ******    PROGRAM STARTED BY                                 mattw
 ***** **    ** ** **   PROGRAM PROCESS ID                                  1687
  **** **  *******  **  PROGRAM STARTED IN /mnt/c/Users/mattw/pycp2k_dev/pycp2k/
                                           howtos/geo_opt

 CP2K| version string:                                          CP2K version 9.1
 CP2K| source code revision number:                                  git:d8d7100
 CP2K| cp2kflags: omp libint fftw3 libxc elpa parallel mpi3 scalapack spglib    
 CP2K| is freely available from                            https://www.cp2k.org/
 CP2K| Program compiled at                          Sun Jan  9 17:14:22 UTC 2022
 CP2K| Program compiled on                                       lcy02-amd64-025
 CP2K| Program compiled for                                Linux-x86_64-gfortran
 CP2K| Data directory path                                       /usr/share/cp2k
 CP2K| Input file name                                                xtb_ot.inp

 GLOBAL| Force Environment number                                              1
 GLOBAL| Basis set file name                                           BASIS_SET
 GLOBAL| Potential file name                                           POTENTIAL
 GLOBAL| MM Potential file name                                     MM_POTENTIAL
 GLOBAL| Coordinate file name                                      __STD_INPUT__
 GLOBAL| Method name                                                        CP2K
 GLOBAL| Project name                                                     xtb_ot
 GLOBAL| Run type                                                        GEO_OPT
 GLOBAL| FFT library                                                       FFTW3
 GLOBAL| Diagonalization library                                            ELPA
 GLOBAL| Minimum number of eigenvectors for ELPA usage                        16
 GLOBAL| Orthonormality check for eigenvectors                          DISABLED
 GLOBAL| Matrix multiplication library                                 ScaLAPACK
 GLOBAL| All-to-all communication in single precision                          F
 GLOBAL| FFTs using library dependent lengths                                  F
 GLOBAL| Grid backend                                                       AUTO
 GLOBAL| Global print level                                               MEDIUM
 GLOBAL| MPI I/O enabled                                                       T
 GLOBAL| Total number of message passing processes                             1
 GLOBAL| Number of threads for this process                                    2
 GLOBAL| This output is from process                                           0
 GLOBAL| Stack size for threads created by OpenMP (OMP_STACKSIZE)        default
 GLOBAL| CPU model name                      12th Gen Intel(R) Core(TM) i7-1260P

 MEMORY| system memory details [Kb]
 MEMORY|                        rank 0           min           max       average
 MEMORY| MemTotal             12247232      12247232      12247232      12247232
 MEMORY| MemFree              11680904      11680904      11680904      11680904
 MEMORY| Buffers                   792           792           792           792
 MEMORY| Cached                 107088        107088        107088        107088
 MEMORY| Slab                    79108         79108         79108         79108
 MEMORY| SReclaimable            22268         22268         22268         22268
 MEMORY| MemLikelyFree        11811052      11811052      11811052      11811052


 *** Fundamental physical constants (SI units) ***

 *** Literature: B. J. Mohr and B. N. Taylor,
 ***             CODATA recommended values of the fundamental physical
 ***             constants: 2006, Web Version 5.1
 ***             http://physics.nist.gov/constants

 Speed of light in vacuum [m/s]                             2.99792458000000E+08
 Magnetic constant or permeability of vacuum [N/A**2]       1.25663706143592E-06
 Electric constant or permittivity of vacuum [F/m]          8.85418781762039E-12
 Planck constant (h) [J*s]                                  6.62606896000000E-34
 Planck constant (h-bar) [J*s]                              1.05457162825177E-34
 Elementary charge [C]                                      1.60217648700000E-19
 Electron mass [kg]                                         9.10938215000000E-31
 Electron g factor [ ]                                     -2.00231930436220E+00
 Proton mass [kg]                                           1.67262163700000E-27
 Fine-structure constant                                    7.29735253760000E-03
 Rydberg constant [1/m]                                     1.09737315685270E+07
 Avogadro constant [1/mol]                                  6.02214179000000E+23
 Boltzmann constant [J/K]                                   1.38065040000000E-23
 Atomic mass unit [kg]                                      1.66053878200000E-27
 Bohr radius [m]                                            5.29177208590000E-11

 *** Conversion factors ***

 [u] -> [a.u.]                                              1.82288848426455E+03
 [Angstrom] -> [Bohr] = [a.u.]                              1.88972613288564E+00
 [a.u.] = [Bohr] -> [Angstrom]                              5.29177208590000E-01
 [a.u.] -> [s]                                              2.41888432650478E-17
 [a.u.] -> [fs]                                             2.41888432650478E-02
 [a.u.] -> [J]                                              4.35974393937059E-18
 [a.u.] -> [N]                                              8.23872205491840E-08
 [a.u.] -> [K]                                              3.15774647902944E+05
 [a.u.] -> [kJ/mol]                                         2.62549961709828E+03
 [a.u.] -> [kcal/mol]                                       6.27509468713739E+02
 [a.u.] -> [Pa]                                             2.94210107994716E+13
 [a.u.] -> [bar]                                            2.94210107994716E+08
 [a.u.] -> [atm]                                            2.90362800883016E+08
 [a.u.] -> [eV]                                             2.72113838565563E+01
 [a.u.] -> [Hz]                                             6.57968392072181E+15
 [a.u.] -> [1/cm] (wave numbers)                            2.19474631370540E+05
 [a.u./Bohr**2] -> [1/cm]                                   5.14048714338585E+03
 

 CELL_TOP| Volume [angstrom^3]:                                       160.164712
 CELL_TOP| Vector a [angstrom     5.431     0.000     0.000   |a| =     5.430697
 CELL_TOP| Vector b [angstrom     0.000     5.431     0.000   |b| =     5.430697
 CELL_TOP| Vector c [angstrom     0.000     0.000     5.431   |c| =     5.430697
 CELL_TOP| Angle (b,c), alpha [degree]:                                90.000000
 CELL_TOP| Angle (a,c), beta  [degree]:                                90.000000
 CELL_TOP| Angle (a,b), gamma [degree]:                                90.000000
 CELL_TOP| Numerically orthorhombic:                                         YES

 GENERATE|  Preliminary Number of Bonds generated:                             0
 GENERATE|  Achieved consistency in connectivity generation.

 CELL| Volume [angstrom^3]:                                           160.164712
 CELL| Vector a [angstrom]:       5.431     0.000     0.000   |a| =     5.430697
 CELL| Vector b [angstrom]:       0.000     5.431     0.000   |b| =     5.430697
 CELL| Vector c [angstrom]:       0.000     0.000     5.431   |c| =     5.430697
 CELL| Angle (b,c), alpha [degree]:                                    90.000000
 CELL| Angle (a,c), beta  [degree]:                                    90.000000
 CELL| Angle (a,b), gamma [degree]:                                    90.000000
 CELL| Numerically orthorhombic:                                             YES

 CELL_REF| Volume [angstrom^3]:                                       160.164712
 CELL_REF| Vector a [angstrom     5.431     0.000     0.000   |a| =     5.430697
 CELL_REF| Vector b [angstrom     0.000     5.431     0.000   |b| =     5.430697
 CELL_REF| Vector c [angstrom     0.000     0.000     5.431   |c| =     5.430697
 CELL_REF| Angle (b,c), alpha [degree]:                                90.000000
 CELL_REF| Angle (a,c), beta  [degree]:                                90.000000
 CELL_REF| Angle (a,b), gamma [degree]:                                90.000000
 CELL_REF| Numerically orthorhombic:                                         YES


                  #####   #####        #          ####### ######   
                 #     # #     #      #              #    #     #  
                 #     # #           #    ##   ##    #    #     #  
                 #     #  #####     #      ## ##     #    ######   
                 #   # #       #   #        ###      #    #     #  
                 #    #  #     #  #        ## ##     #    #     #  
                  #### #  #####  #        ##   ##    #    ######   
                                                                   
                                 Version 1.0                       
                            J. Hutter and A. Hehn                  
                                                                   


 EWALD| Summation is done by:                                               SPME
 EWALD| Alpha parameter [       ANGSTROM^-1]                              1.8897
 EWALD| Real Space Cutoff [          ANGSTROM]                            1.7854
 EWALD| G-space max. Miller index                         45        45        45
 EWALD| Spline interpolation order                                             6

 PW_GRID| Information for grid number                                          1
 PW_GRID| Cutoff [a.u.]                                                     90.7
 PW_GRID| spherical cutoff:                                                  YES
 PW_GRID| Grid points within cutoff                                        22198
 PW_GRID|   Bounds   1            -22      22                Points:          45
 PW_GRID|   Bounds   2            -22      22                Points:          45
 PW_GRID|   Bounds   3            -22      22                Points:          45
 PW_GRID| Volume element (a.u.^3)  0.1186E-01     Volume (a.u.^3)      1080.8451
 PW_GRID| Grid span                                                    HALFSPACE

 RS_GRID| Information for grid number                                          1
 RS_GRID|   Bounds   1            -22      22                Points:          45
 RS_GRID|   Bounds   2            -22      22                Points:          45
 RS_GRID|   Bounds   3            -22      22                Points:          45

 xTB| Parameter file                                              xTB_parameters
 xTB| Basis expansion STO-NG                                                   6
 xTB| Basis expansion STO-NG for Hydrogen                                      4
 xTB| Halogen interaction potential                                            T
 xTB| Halogen interaction potential cutoff radius                         20.000
 xTB| Nonbonded interactions                                                   F
 xTB| D3 Dispersion: Parameter                                         dftd3.dat
 xTB| Huckel constants ks kp kd                        1.850     2.250     2.000
 xTB| Huckel constants ksp k2sh                                  2.080     2.850
 xTB| Mataga-Nishimoto exponent                                            2.000
 xTB| Repulsion potential exponent                                         1.500
 xTB| Coordination number scaling kcn(s) kcn(p) kc     0.006    -0.003    -0.005
 xTB| Electronegativity scaling                                           -0.007
 xTB| Halogen potential scaling kxr kx2                          1.300     0.440


 vdW POTENTIAL|                                                   Pair Potential
 vdW POTENTIAL|          DFT-D3 (Version 3.1)
 vdW POTENTIAL|          Potential Form: S. Grimme et al, JCP 132: 154104 (2010)
 vdW POTENTIAL|          BJ Damping: S. Grimme et al, JCC 32: 1456 (2011)
 vdW POTENTIAL|          Cutoff Radius [Bohr]:                             15.00
 vdW POTENTIAL|          s6 Scaling Factor:                               1.0000
 vdW POTENTIAL|          a1 Damping Factor:                               0.6300
 vdW POTENTIAL|          s8 Scaling Factor:                               2.4000
 vdW POTENTIAL|          a2 Damping Factor:                               5.0000
 vdW POTENTIAL|          Cutoff for CN calculation:                   0.1000E-05


 ATOMIC KIND INFORMATION

  1. Atomic kind: Si                                    Number of atoms:       8

     Orbital Basis Set                                            Silicon_STO-6G

       Number of orbital shell sets:                                           3
       Number of orbital shells:                                               3
       Number of primitive Cartesian functions:                               18
       Number of Cartesian basis functions:                                   10
       Number of spherical basis functions:                                    9
       Norm type:                                                              2

       Normalised Cartesian orbitals:

                        Set   Shell   Orbital            Exponent    Coefficient

                          1       1    1s                7.581528      -0.022064
                                                         2.131195      -0.070893
                                                         0.832350      -0.098617
                                                         0.200057       0.117993
                                                         0.111125       0.068797
                                                         0.063115       0.006483

                          2       1    2px              13.148525      -0.118842
                                                         3.471733      -0.095886
                                                         0.582193       0.118839
                                                         0.293045       0.137849
                                                         0.157338       0.055211
                                                         0.085847       0.004909
                          2       1    2py              13.148525      -0.118842
                                                         3.471733      -0.095886
                                                         0.582193       0.118839
                                                         0.293045       0.137849
                                                         0.157338       0.055211
                                                         0.085847       0.004909
                          2       1    2pz              13.148525      -0.118842
                                                         3.471733      -0.095886
                                                         0.582193       0.118839
                                                         0.293045       0.137849
                                                         0.157338       0.055211
                                                         0.085847       0.004909

                          3       1    3dx2              3.400241       0.102073
                                                         1.090665       0.103205
                                                         0.452491       0.085142
                                                         0.213052       0.046915
                                                         0.107649       0.012797
                                                         0.055459       0.000929
                          3       1    3dxy              3.400241       0.176796
                                                         1.090665       0.178756
                                                         0.452491       0.147471
                                                         0.213052       0.081258
                                                         0.107649       0.022165
                                                         0.055459       0.001609
                          3       1    3dxz              3.400241       0.176796
                                                         1.090665       0.178756
                                                         0.452491       0.147471
                                                         0.213052       0.081258
                                                         0.107649       0.022165
                                                         0.055459       0.001609
                          3       1    3dy2              3.400241       0.102073
                                                         1.090665       0.103205
                                                         0.452491       0.085142
                                                         0.213052       0.046915
                                                         0.107649       0.012797
                                                         0.055459       0.000929
                          3       1    3dyz              3.400241       0.176796
                                                         1.090665       0.178756
                                                         0.452491       0.147471
                                                         0.213052       0.081258
                                                         0.107649       0.022165
                                                         0.055459       0.001609
                          3       1    3dz2              3.400241       0.102073
                                                         1.090665       0.103205
                                                         0.452491       0.085142
                                                         0.213052       0.046915
                                                         0.107649       0.012797
                                                         0.055459       0.000929

     AE Potential information for                                        Silicon

       Description:                                       Bare Coulomb Potential
                                                             Valence charge only

       Gaussian exponent of the core charge distribution:               1.623245
       Electronic configuration (s p d ...):                       2   2   0   0


 MOLECULE KIND INFORMATION


 All atoms are their own molecule, skipping detailed information


 TOTAL NUMBERS AND MAXIMUM NUMBERS

  Total number of            - Atomic kinds:                                   1
                             - Atoms:                                          8
                             - Shell sets:                                    24
                             - Shells:                                        24
                             - Primitive Cartesian functions:                144
                             - Cartesian basis functions:                     80
                             - Spherical basis functions:                     72

  Maximum angular momentum of the orbital basis functions:                     2


 MODULE QUICKSTEP:  ATOMIC COORDINATES IN angstrom

 Atom  Kind  Element       X           Y           Z          Z(eff)       Mass
    1   1 Si  14       0.000000    0.000000    0.000000       4.0000     28.0855
    2   1 Si  14       1.357674    1.357674    1.357674       4.0000     28.0855
    3   1 Si  14       2.715349    2.715349    0.000000       4.0000     28.0855
    4   1 Si  14       4.073023    4.073023    1.357674       4.0000     28.0855
    5   1 Si  14       2.715349    0.000000    2.715349       4.0000     28.0855
    6   1 Si  14       4.073023    1.357674    4.073023       4.0000     28.0855
    7   1 Si  14       0.000000    2.715349    2.715349       4.0000     28.0855
    8   1 Si  14       1.357674    4.073023    4.073023       4.0000     28.0855




 SCF PARAMETERS         Density guess:                                   RESTART
                        --------------------------------------------------------
                        max_scf:                                              20
                        max_scf_history:                                       0
                        max_diis:                                              4
                        --------------------------------------------------------
                        eps_scf:                                        1.00E-06
                        eps_scf_history:                                0.00E+00
                        eps_diis:                                       1.00E-01
                        eps_eigval:                                     1.00E-05
                        --------------------------------------------------------
                        level_shift [a.u.]:                                 0.00
                        --------------------------------------------------------
                        Outer loop SCF in use 
                        No variables optimised in outer loop
                        eps_scf                                         1.00E-06
                        max_scf                                                2
                        No outer loop optimization
                        step_size                                       5.00E-01

 PW_GRID| Information for grid number                                          2
 PW_GRID| Cutoff [a.u.]                                                      1.0
 PW_GRID| spherical cutoff:                                                   NO
 PW_GRID|   Bounds   1             -3       2                Points:           6
 PW_GRID|   Bounds   2             -3       2                Points:           6
 PW_GRID|   Bounds   3             -3       2                Points:           6
 PW_GRID| Volume element (a.u.^3)   5.004         Volume (a.u.^3)      1080.8451
 PW_GRID| Grid span                                                    FULLSPACE

 POISSON| Solver                                                        PERIODIC
 POISSON| Periodicity                                                        XYZ

 RS_GRID| Information for grid number                                          2
 RS_GRID|   Bounds   1             -3       2                Points:           6
 RS_GRID|   Bounds   2             -3       2                Points:           6
 RS_GRID|   Bounds   3             -3       2                Points:           6

 BFGS| Use rational function optimization for step estimation:                NO
 BFGS| Use model Hessian for initial guess:                                  YES
 BFGS| Restart Hessian:                                                       NO
 BFGS| Trust radius:                                                       0.472

 *******************************************************************************
 ***                     STARTING GEOMETRY OPTIMIZATION                      ***
 ***                                   BFGS                                  ***
 *******************************************************************************

 Number of electrons:                                                         32
 Number of occupied orbitals:                                                 16
 Number of molecular orbitals:                                                16

 Number of orbital functions:                                                 72
 Number of independent orbital functions:                                     72

 Extrapolation method: initial_guess

 *** WARNING in qs_initial_guess.F:309 :: User requested to restart the    ***
 *** wavefunction from the file named: xtb_ot-RESTART.wfn. This file does  ***
 *** not exist. Please check the existence of the file or change properly  ***
 *** the value of the keyword WFN_RESTART_FILE_NAME. Calculation continues ***
 *** using ATOMIC GUESS.                                                   ***



 SCF WAVEFUNCTION OPTIMIZATION

  ----------------------------------- OT ---------------------------------------
  Minimizer      : DIIS                : direct inversion
                                         in the iterative subspace
                                         using   7 DIIS vectors
                                         safer DIIS on
  Preconditioner : FULL_ALL            : diagonalization, state selective
  Precond_solver : DEFAULT
  stepsize       :    0.15000000                  energy_gap     :    0.08000000
  eps_taylor     :   0.10000E-15                  max_taylor     :             4
  ----------------------------------- OT ---------------------------------------

  Step     Update method      Time    Convergence         Total energy    Change
  ------------------------------------------------------------------------------
     1 OT DIIS     0.15E+00    0.0     0.01051101       -14.5331495226 -1.45E+01
     2 OT DIIS     0.15E+00    0.0     0.00625591       -14.5483710809 -1.52E-02
     3 OT SD       0.15E+00    0.0     0.00019916       -14.5567905036 -8.42E-03
     4 OT SD       0.15E+00    0.0     0.00008573       -14.5567953823 -4.88E-06
     5 OT DIIS     0.15E+00    0.0     0.00003989       -14.5567963063 -9.24E-07
     6 OT DIIS     0.15E+00    0.0     0.00000122       -14.5567965929 -2.87E-07
     7 OT DIIS     0.15E+00    0.0     0.00000044       -14.5567965931 -2.03E-10

  *** SCF run converged in     7 steps ***


  Core Hamiltonian energy:                                    -14.53111384014456
  Repulsive potential energy:                                   0.14277432895312
  Electronic energy:                                           -0.10893581264141
  DFTB3 3rd order energy:                                      -0.00000000000000
  Dispersion energy:                                           -0.05952126926732
  Correction for halogen bonding:                               0.00000000000000

  Total energy:                                               -14.55679659310017

  outer SCF iter =    1 RMS gradient =   0.44E-06 energy =        -14.5567965931
  outer SCF loop converged in   1 iterations or    7 steps



 MULLIKEN POPULATION ANALYSIS

  # Atom   Element   Kind        Atomic population                    Net charge
       1     Si         1                 4.000000                      0.000000
       2     Si         1                 4.000000                     -0.000000
       3     Si         1                 4.000000                      0.000000
       4     Si         1                 4.000000                     -0.000000
       5     Si         1                 4.000000                     -0.000000
       6     Si         1                 4.000000                     -0.000000
       7     Si         1                 4.000000                     -0.000000
       8     Si         1                 4.000000                      0.000000
 # Total charge                          32.000000                     -0.000000


 ENERGY| Total FORCE_EVAL ( QS ) energy [a.u.]:              -14.556796593104400

 --------  Informations at step =     0 ------------
  Optimization Method        =                 BFGS
  Total Energy               =       -14.5567965931
  Used time                  =                0.326
 ---------------------------------------------------

 --------------------------
 OPTIMIZATION STEP:      1
 --------------------------

 Number of electrons:                                                         32
 Number of occupied orbitals:                                                 16
 Number of molecular orbitals:                                                16

 Number of orbital functions:                                                 72
 Number of independent orbital functions:                                     72

 Parameters for the always stable predictor-corrector (ASPC) method:

  ASPC order: 0

  B(1) =   1.000000

 Extrapolation method: ASPC


 SCF WAVEFUNCTION OPTIMIZATION

  ----------------------------------- OT ---------------------------------------
  Minimizer      : DIIS                : direct inversion
                                         in the iterative subspace
                                         using   7 DIIS vectors
                                         safer DIIS on
  Preconditioner : FULL_ALL            : diagonalization, state selective
  Precond_solver : DEFAULT
  stepsize       :    0.15000000                  energy_gap     :    0.08000000
  eps_taylor     :   0.10000E-15                  max_taylor     :             4
  ----------------------------------- OT ---------------------------------------

  Step     Update method      Time    Convergence         Total energy    Change
  ------------------------------------------------------------------------------
     1 OT DIIS     0.15E+00    0.0     0.00000041       -14.5567965931 -1.46E+01

  *** SCF run converged in     1 steps ***


  Core Hamiltonian energy:                                    -14.53111374823114
  Repulsive potential energy:                                   0.14277432895312
  Electronic energy:                                           -0.10893590455902
  DFTB3 3rd order energy:                                      -0.00000000000000
  Dispersion energy:                                           -0.05952126926732
  Correction for halogen bonding:                               0.00000000000000

  Total energy:                                               -14.55679659310436

  outer SCF iter =    1 RMS gradient =   0.41E-06 energy =        -14.5567965931
  outer SCF loop converged in   1 iterations or    1 steps



 MULLIKEN POPULATION ANALYSIS

  # Atom   Element   Kind        Atomic population                    Net charge
       1     Si         1                 4.000000                     -0.000000
       2     Si         1                 4.000000                      0.000000
       3     Si         1                 4.000000                     -0.000000
       4     Si         1                 4.000000                      0.000000
       5     Si         1                 4.000000                      0.000000
       6     Si         1                 4.000000                     -0.000000
       7     Si         1                 4.000000                      0.000000
       8     Si         1                 4.000000                      0.000000
 # Total charge                          32.000000                      0.000000


 ENERGY| Total FORCE_EVAL ( QS ) energy [a.u.]:              -14.556796593125284

 --------  Informations at step =     1 ------------
  Optimization Method        =                 BFGS
  Total Energy               =       -14.5567965931
  Real energy change         =        -0.0000000000
  Predicted change in energy =        -0.0000000000
  Scaling factor             =         0.0000000000
  Step size                  =         0.0000000000
  Trust radius               =         0.4724315332
  Decrease in energy         =                  YES
  Used time                  =                0.195

  Convergence check :
  Max. step size             =         0.0000000000
  Conv. limit for step size  =         0.0030000000
  Convergence in step size   =                  YES
  RMS step size              =         0.0000000000
  Conv. limit for RMS step   =         0.0015000000
  Convergence in RMS step    =                  YES
  Max. gradient              =         0.0000000000
  Conv. limit for gradients  =         0.0004500000
  Conv. in gradients         =                  YES
  RMS gradient               =         0.0000000000
  Conv. limit for RMS grad.  =         0.0003000000
  Conv. in RMS gradients     =                  YES
 ---------------------------------------------------

 *******************************************************************************
 ***                    GEOMETRY OPTIMIZATION COMPLETED                      ***
 *******************************************************************************

                    Reevaluating energy at the minimum

 Number of electrons:                                                         32
 Number of occupied orbitals:                                                 16
 Number of molecular orbitals:                                                16

 Number of orbital functions:                                                 72
 Number of independent orbital functions:                                     72

 Parameters for the always stable predictor-corrector (ASPC) method:

  ASPC order: 0

  B(1) =   2.000000
  B(2) =  -1.000000

 Extrapolation method: ASPC


 SCF WAVEFUNCTION OPTIMIZATION

  ----------------------------------- OT ---------------------------------------
  Minimizer      : DIIS                : direct inversion
                                         in the iterative subspace
                                         using   7 DIIS vectors
                                         safer DIIS on
  Preconditioner : FULL_ALL            : diagonalization, state selective
  Precond_solver : DEFAULT
  stepsize       :    0.15000000                  energy_gap     :    0.08000000
  eps_taylor     :   0.10000E-15                  max_taylor     :             4
  ----------------------------------- OT ---------------------------------------

  Step     Update method      Time    Convergence         Total energy    Change
  ------------------------------------------------------------------------------
     1 OT DIIS     0.15E+00    0.0     0.00000008       -14.5567965931 -1.46E+01

  *** SCF run converged in     1 steps ***


  Core Hamiltonian energy:                                    -14.53111279530236
  Repulsive potential energy:                                   0.14277432895312
  Electronic energy:                                           -0.10893685751326
  DFTB3 3rd order energy:                                      -0.00000000000000
  Dispersion energy:                                           -0.05952126926732
  Correction for halogen bonding:                               0.00000000000000

  Total energy:                                               -14.55679659312982

  outer SCF iter =    1 RMS gradient =   0.82E-07 energy =        -14.5567965931
  outer SCF loop converged in   1 iterations or    1 steps



 MULLIKEN POPULATION ANALYSIS

  # Atom   Element   Kind        Atomic population                    Net charge
       1     Si         1                 4.000000                      0.000000
       2     Si         1                 4.000000                     -0.000000
       3     Si         1                 4.000000                      0.000000
       4     Si         1                 4.000000                     -0.000000
       5     Si         1                 4.000000                     -0.000000
       6     Si         1                 4.000000                      0.000000
       7     Si         1                 4.000000                     -0.000000
       8     Si         1                 4.000000                      0.000000
 # Total charge                          32.000000                      0.000000


 ENERGY| Total FORCE_EVAL ( QS ) energy [a.u.]:              -14.556796593129818

 -------------------------------------------------------------------------------
 -                                                                             -
 -                                DBCSR STATISTICS                             -
 -                                                                             -
 -------------------------------------------------------------------------------
 COUNTER                                    TOTAL       BLAS       SMM       ACC
 flops    27 x    16 x    16               663552     100.0%      0.0%      0.0%
 flops    16 x    16 x    16               794624     100.0%      0.0%      0.0%
 flops    45 x    16 x    16              1105920     100.0%      0.0%      0.0%
 flops     9 x     9 x    16              1306368     100.0%      0.0%      0.0%
 flops    16 x    16 x    72              1437696     100.0%      0.0%      0.0%
 flops    27 x    16 x    72              1492992     100.0%      0.0%      0.0%
 flops    45 x    16 x    72              2488320     100.0%      0.0%      0.0%
 flops     9 x    16 x     9              6303744     100.0%      0.0%      0.0%
 flops inhomo. stacks                           0       0.0%      0.0%      0.0%
 flops total                        15.593216E+06     100.0%      0.0%      0.0%
 flops max/rank                     15.593216E+06     100.0%      0.0%      0.0%
 matmuls inhomo. stacks                         0       0.0%      0.0%      0.0%
 matmuls total                               3216     100.0%      0.0%      0.0%
 number of processed stacks                   384     100.0%      0.0%      0.0%
 average stack size                                     8.4       0.0       0.0
 marketing flops                    16.719872E+06
 -------------------------------------------------------------------------------
 # multiplications                            263
 max memory usage/rank             144.969728E+06
 # max total images/rank                        1
 # max 3D layers                                1
 # MPI messages exchanged                       0
 -------------------------------------------------------------------------------
 -                                                                             -
 -                      DBCSR MESSAGE PASSING PERFORMANCE                      -
 -                                                                             -
 -------------------------------------------------------------------------------
 ROUTINE             CALLS      AVE VOLUME [Bytes]
 MP_Bcast                9                     12.
 MP_Allreduce         1348                      8.
 MP_Alltoall          1385                   4517.
 MP_ISend             1040                    228.
 MP_IRecv             1040                    228.
 -------------------------------------------------------------------------------

 -------------------------------------------------------------------------------
 -                                                                             -
 -                                GRID STATISTICS                              -
 -                                                                             -
 -------------------------------------------------------------------------------
 LP    KERNEL             BACKEND                              COUNT     PERCENT
 -------------------------------------------------------------------------------

 MEMORY| Estimated peak process memory [MiB]                                 141

 -------------------------------------------------------------------------------
 ----                             MULTIGRID INFO                            ----
 -------------------------------------------------------------------------------
 total grid count     :           342              cutoff [a.u.]            1.00

 -------------------------------------------------------------------------------
 -                                                                             -
 -                         MESSAGE PASSING PERFORMANCE                         -
 -                                                                             -
 -------------------------------------------------------------------------------

 ROUTINE             CALLS      AVE VOLUME [Bytes]
 MP_Group                2
 MP_Bcast               76                  18412.
 MP_Allreduce          556                     49.
 MP_Sync                14
 -------------------------------------------------------------------------------


 -------------------------------------------------------------------------------
 -                                                                             -
 -                           R E F E R E N C E S                               -
 -                                                                             -
 -------------------------------------------------------------------------------
 
 CP2K version 9.1, the CP2K developers group (2021).
 CP2K is freely available from https://www.cp2k.org/ .

 Kuehne,Thomas D.; Iannuzzi,Marcella; Del Ben,Mauro;
 Rybkin,Vladimir V.; Seewald,Patrick; Stein,Frederick; Laino,Teodoro;
 Khaliullin,Rustam Z.; Schuett,Ole; Schiffmann,Florian; Golze,Dorothea;
 Wilhelm,Jan; Chulkov,Sergey; Bani-Hashemian,Mohammad Hossein;
 Weber,Valery; Borstnik,Urban; Taillefumier,Mathieu;
 Jakobovits,Alice Shoshana; Lazzaro,Alfio; Pabst,Hans; Mueller,Tiziano;
 Schade,Robert; Guidon,Manuel; Andermatt,Samuel; Holmberg,Nico;
 Schenter,Gregory K.; Hehn,Anna; Bussy,Augustin; Belleflamme,Fabian;
 Tabacchi,Gloria; Gloess,Andreas; Lass,Michael; Bethune,Iain;
 Mundy,Christopher J.; Plessl,Christian; Watkins,Matt;
 VandeVondele,Joost; Krack,Matthias; Hutter,Juerg. 
 The Journal of Chemical Physics, 152 (19), (2020). 
 CP2K: An electronic structure and molecular dynamics software package -
 Quickstep: Efficient and accurate electronic structure calculations.
 https://doi.org/10.1063/5.0007045

 Grimme, S; Bannwarth, C; Shushkov, P. 
 Journal of Chemical Theory and Computation, 13, 1989 (2017). 
 A Robust and Accurate Tight-Binding Quantum Chemical Method for
 Structures, Vibrational Frequencies, and Noncovalent Interactions of
 Large Molecular Systems Parametrized for All spd-Block Elements (Z = 1-86).
 https://doi.org/10.1021/acs.jctc.7b00118

 Goerigk, Lars; Hansen, Andreas; Bauer, Christoph; Ehrlich, Stephan;
 Najibi, Asim; Grimme, Stefan. , 19 (48), (2017). 
 A look at the density functional theory zoo with the advanced GMTKN55 database
 for general main group thermochemistry, kinetics and noncovalent interactions.
 https://doi.org/10.1039/C7CP04913G

 Schuett, Ole; Messmer, Peter; Hutter, Juerg; VandeVondele, Joost. 
 Electronic Structure Calculations on Graphics Processing Units, John
 Wiley & Sons, Ltd, 173-190 (2016). 
 GPU-Accelerated Sparse Matrix-Matrix Multiplication for
 Linear Scaling Density Functional Theory.
 https://doi.org/10.1002/9781118670712.ch8

 Borstnik, U; VandeVondele, J; Weber, V; Hutter, J. 
 PARALLEL COMPUTING, 40 (5-6), 47-58 (2014). 
 Sparse matrix multiplication: The distributed block-compressed sparse
 row library.
 https://doi.org/10.1016/j.parco.2014.03.012

 Hutter, J; Iannuzzi, M; Schiffmann, F; VandeVondele, J. 
 WIREs Comput Mol Sci., 4 (1), 15-25 (2014). 
 CP2K: atomistic simulations of condensed matter systems.
 https://doi.org/10.1002/wcms.1159

 Marek, A; Blum, V; Johanni, R; Havu, V; Lang, B; Auckenthaler, T;
 Heinecke, A; Bungartz, H; Lederer, H. 
 Journal of Physics: Condensed Matter, 26 (21), (2014). 
 The ELPA library: scalable parallel eigenvalue solutions for
 electronic structure
 theory and computational science.
 https://doi.org/10.1088/0953-8984/26/21/213201

 Grimme, S; Ehrlich, S; Goerigk, L. 
 JOURNAL OF COMPUTATIONAL CHEMISTRY, 32, 1456 (2011). 
 Effect of the damping function in dispersion corrected density functional theory.
 https://doi.org/10.1002/jcc.21759

 Grimme, S; Antony, J; Ehrlich, S; Krieg, H. 
 JOURNAL OF CHEMICAL PHYSICS, 132 (15), 154104 (2010). 
 A consistent and accurate ab initio parametrization of density
 functional dispersion correction (DFT-D) for the 94 elements H-Pu.
 https://doi.org/10.1063/1.3382344

 Kuhne, TD; Krack, M; Mohamed, FR; Parrinello, M. 
 PHYSICAL REVIEW LETTERS, 98 (6), 066401 (2007). 
 Efficient and accurate Car-Parrinello-like approach to
 Born-Oppenheimer molecular dynamics.
 https://doi.org/10.1103/PhysRevLett.98.066401

 Frigo, M; Johnson, SG. 
 PROCEEDINGS OF THE IEEE, 93 (2), 216-231 (2005). 
 The design and implementation of FFTW3.
 https://doi.org/10.1109/JPROC.2004.840301

 Kolafa, J. 
 JOURNAL OF COMPUTATIONAL CHEMISTRY, 25 (3), 335-342 (2004). 
 Time-reversible always stable predictor-corrector method for
 molecular dynamics of polarizable molecules.
 https://doi.org/10.1002/jcc.10385

 VandeVondele, J; Hutter, J. 
 JOURNAL OF CHEMICAL PHYSICS, 118 (10), 4365-4369 (2003). 
 An efficient orbital transformation method for electronic structure
 calculations.
 https://doi.org/10.1063/1.1543154


 -------------------------------------------------------------------------------
 -                                                                             -
 -                                T I M I N G                                  -
 -                                                                             -
 -------------------------------------------------------------------------------
 SUBROUTINE                       CALLS  ASD         SELF TIME        TOTAL TIME
                                MAXIMUM       AVERAGE  MAXIMUM  AVERAGE  MAXIMUM
 CP2K                                 1  1.0    0.019    0.019    0.712    0.712
 cp_geo_opt                           1  2.0    0.002    0.002    0.626    0.626
 geoopt_bfgs                          1  3.0    0.005    0.005    0.624    0.624
 cp_eval_at                           3  4.0    0.001    0.001    0.582    0.582
 qs_forces                            2  5.0    0.001    0.001    0.507    0.507
 qs_energies                          3  5.7    0.002    0.002    0.360    0.360
 build_xtb_matrices                   5  7.0    0.296    0.296    0.300    0.300
 scf_env_do_scf                       3  6.7    0.000    0.000    0.209    0.209
 scf_env_do_scf_inner_loop            9  7.9    0.007    0.007    0.159    0.159
 qs_energies_init_hamiltonians        3  6.7    0.000    0.000    0.131    0.131
 dbcsr_multiply_generic             263 13.8    0.004    0.004    0.075    0.075
 rebuild_ks_matrix                   11  9.4    0.000    0.000    0.071    0.071
 build_xtb_ks_matrix                 11 10.4    0.001    0.001    0.071    0.071
 qs_scf_new_mos                       9  8.9    0.000    0.000    0.070    0.070
 qs_scf_loop_do_ot                    9  9.9    0.000    0.000    0.070    0.070
 ot_scf_mini                          9 10.9    0.000    0.000    0.067    0.067
 build_xtb_coulomb                   11 11.4    0.018    0.018    0.066    0.066
 qs_init_subsys                       1  2.0    0.008    0.008    0.058    0.058
 qs_ks_update_qs_env                 12  8.8    0.000    0.000    0.052    0.052
 init_scf_loop                        3  7.7    0.000    0.000    0.049    0.049
 ot_mini                              9 11.9    0.000    0.000    0.049    0.049
 tb_spme_evaluate                    11 12.4    0.003    0.003    0.048    0.048
 write_mo_set_to_restart              9  8.9    0.042    0.042    0.044    0.044
 qs_ot_get_derivative                 9 12.9    0.000    0.000    0.039    0.039
 qs_dispersion_pairpot_init           1  3.0    0.036    0.036    0.036    0.036
 pw_transfer                         83 13.9    0.002    0.002    0.035    0.035
 make_m2s                           526 14.8    0.002    0.002    0.035    0.035
 fft_wrap_pw1pw2                     28 13.9    0.000    0.000    0.032    0.032
 fft_wrap_pw1pw2_100                 28 14.9    0.005    0.005    0.032    0.032
 qs_ot_get_derivative_taylor          9 13.9    0.000    0.000    0.028    0.028
 calculate_dispersion_pairpot         3  7.7    0.024    0.024    0.025    0.025
 fft3d_s                             29 15.4    0.023    0.023    0.024    0.024
 make_images                        526 15.8    0.005    0.005    0.022    0.022
 prepare_preconditioner               3  8.7    0.000    0.000    0.021    0.021
 qs_ks_update_qs_env_forces           2  6.0    0.000    0.000    0.020    0.020
 multiply_cannon                    263 14.8    0.007    0.007    0.018    0.018
 make_preconditioner                  3  9.7    0.002    0.002    0.015    0.015
 qs_ot_get_p                         12 11.3    0.000    0.000    0.015    0.015
 cp_fm_diag_elpa                     12 10.6    0.000    0.000    0.014    0.014
 cp_fm_diag_elpa_base                12 11.6    0.011    0.011    0.014    0.014
 write_restart                        2  4.0    0.014    0.014    0.014    0.014
 -------------------------------------------------------------------------------

 The number of warnings for this run is : 1
 
 -------------------------------------------------------------------------------
  **** **** ******  **  PROGRAM ENDED AT                 2025-07-03 15:06:53.376
 ***** ** ***  *** **   PROGRAM RAN ON                           BOOK-4GL9QDET17
 **    ****   ******    PROGRAM RAN BY                                     mattw
 ***** **    ** ** **   PROGRAM PROCESS ID                                  1687
  **** **  *******  **  PROGRAM STOPPED IN /mnt/c/Users/mattw/pycp2k_dev/pycp2k/
                                           howtos/geo_opt
